Mo  S  W 
 1.0000000000000000
     9.5549999999999997    0.0000000000000000    0.0000000000000000
     0.0000000000000000   16.5497450000000015    0.0000000000000000
     0.0000000000000000    0.0000000000000000   25.0000000000000000
  Mo   S   W
  18  72  18
Direct
  0.1745783400000000  0.0564977400000000  0.3740241700000000
  0.6734170500000000  0.5520874800000000  0.3731406000000000
  0.8420718800000001  0.3904793500000000  0.3746782900000000
  0.0168658200000000  0.2231056600000000  0.3711060899999999
  0.8321823699999999  0.0553046300000000  0.3721528200000000
  0.5124503600000000  0.3866708400000000  0.3784789400000000
  0.0067434100000000  0.8902944100000000  0.3732647000000000
  0.6705817400000000  0.8883702700000000  0.3753988500000000
  0.8342726900000000  0.7155367000000000  0.3751681300000000
  0.3389461100000000  0.5532509900000000  0.3765347400000000
  0.3387837600000000  0.8879791000000000  0.3763687700000000
  0.1800142500000000  0.3909070200000000  0.3743704700000000
  0.9996517100000000  0.5518024200000000  0.3765827900000000
  0.1721327700000000  0.7223849700000000  0.3766249500000000
  0.6745524400000000  0.2219289200000000  0.3781530400000000
  0.5164815699999999  0.0545294000000000  0.3762354500000000
  0.3390783200000000  0.2211013300000000  0.3724362300000000
  0.5021239300000000  0.7184993400000000  0.3777565000000000
  0.0149192500000000  0.3401403000000000  0.3078255500000000
  0.0036298000000000  0.6617801500000000  0.3120572800000000
  0.0025256000000000  0.9980991100000001  0.3072978600000000
  0.1729636900000000  0.1655550100000000  0.3099019700000000
  0.1720526100000000  0.4996378000000001  0.3125073900000000
  0.1790763500000000  0.8349412899999999  0.3114695500000000
  0.3515891700000000  0.3331476800000000  0.3113751300000000
  0.3418849500000000  0.6609978100000000  0.3157182200000000
  0.3405541000000000  0.0025383000000000  0.3137956900000000
  0.5053204600000000  0.1653695500000000  0.3110479000000000
  0.5061690000000000  0.4960480700000001  0.3126249300000000
  0.4995118300000000  0.8302737900000000  0.3134072400000000
  0.6702720100000000  0.3373436500000000  0.3116129700000000
  0.6656291600000001  0.6645910900000001  0.3121659000000000
  0.6728643600000001  0.9972814600000000  0.3090322000000000
  0.8359778600000000  0.1700965100000000  0.3130301500000000
  0.8361218400000000  0.5053183000000000  0.3105188800000000
  0.8464561200000000  0.8322479699999999  0.3126641200000000
  0.0082441500000000  0.6680011300000001  0.4369364300000000
  0.1688610300000000  0.1725157300000000  0.4366187600000000
  0.3371651700000000  0.3291814600000000  0.4378072100000000
  0.3320207800000000  0.6665504700000000  0.4410531900000000
  0.5064351800000000  0.1659036700000000  0.4386372800000000
  0.6829032400000000  0.3263932600000000  0.4439773800000000
  0.6691621700000000  0.6671426000000000  0.4406819300000000
  0.8445683200000000  0.1665064900000000  0.4356396300000000
  0.8379621000000000  0.8302309900000000  0.4392775900000000
  0.0124228200000000  0.3357952700000000  0.4343353800000000
  0.9965634100000000  0.9973355600000000  0.4331703599999999
  0.1649262600000000  0.4988800200000000  0.4397727900000000
  0.1702884900000000  0.8346753800000000  0.4358178700000000
  0.3406437000000000  0.0011116100000000  0.4363708800000000
  0.5085066400000000  0.5060359400000000  0.4388873700000000
  0.5078219700000000  0.8344293000000000  0.4357690300000000
  0.6785690200000000  0.0056797500000000  0.4370227400000000
  0.8311833100000000  0.5035640700000000  0.4378928300000000
  0.0065140000000000  0.2171497400000000  0.5629988400000000
  0.0068354500000000  0.5579140200000000  0.5586230100000000
  0.9996378500000000  0.8944807200000000  0.5575833900000000
  0.1605510600000000  0.0587623000000000  0.5635032900000000
  0.1617529200000000  0.3881216700000000  0.5606023900000000
  0.1711511500000000  0.7216161500000000  0.5610387200000000
  0.3333000800000000  0.2196814900000000  0.5650683500000000
  0.3371266100000000  0.5588735200000000  0.5661765000000000
  0.3355073400000000  0.8888110200000000  0.5638795200000000
  0.4843383300000000  0.0556765200000000  0.5619252000000000
  0.4832745500000001  0.3890837900000000  0.5642676300000000
  0.4928959200000000  0.7261440300000001  0.5654258800000000
  0.6684138400000000  0.2225129300000000  0.5609340800000000
  0.6549459300000000  0.5585033100000000  0.5618826200000000
  0.6668654000000001  0.8903145400000000  0.5610469900000000
  0.8218545400000000  0.0525274800000000  0.5619840100000000
  0.8309822200000000  0.3908952300000000  0.5615510000000000
  0.8227384900000000  0.7258230000000000  0.5589642000000000
  0.9938815300000000  0.5568844500000000  0.6839603800000000
  0.0030435600000000  0.8898466000000000  0.6871540800000000
  0.1547256500000000  0.0528182300000000  0.6876607600000000
  0.1518776100000000  0.3877064900000000  0.6890073600000000
  0.1540342700000000  0.7283854700000000  0.6875419800000000
  0.3207962800000000  0.5591626400000000  0.6884050399999999
  0.3371037000000000  0.8853303100000000  0.6877759800000000
  0.4849640399999999  0.0537891600000000  0.6903044100000000
  0.4843788300000000  0.3900886500000000  0.6865766300000000
  0.6655063100000000  0.5596735100000000  0.6861383200000000
  0.6760516100000000  0.8900240600000000  0.6877468000000000
  0.8211615400000000  0.0563969300000000  0.6889956699999999
  0.8243343800000000  0.3938790300000000  0.6859440400000000
  0.8348489000000000  0.7225044600000000  0.6864881600000000
  0.9906872500000000  0.2200416500000000  0.6897647099999999
  0.3379849200000000  0.2199708800000000  0.6872403300000000
  0.4971491200000001  0.7223326000000000  0.6910438700000000
  0.6663511300000000  0.2222129100000000  0.6870493400000000
  0.4954983400000000  0.5025196000000000  0.6270797000000000
  0.1672230100000000  0.1668915500000000  0.6294449600000001
  0.9876302199999999  0.9995646500000001  0.6245482400000000
  0.8424482800000002  0.8320385400000000  0.6207940300000000
  0.6656607000000000  0.6728224500000000  0.6258058600000000
  0.3160290300000000  0.3305127100000000  0.6252207100000000
  0.8296474300000000  0.1671701700000000  0.6244248999999999
  0.1641212400000000  0.5025981000000000  0.6250610000000000
  0.8327838600000000  0.5053191100000000  0.6203656600000000
  0.9941561300000000  0.3319212500000000  0.6243222800000000
  0.6589124800000000  0.3354138000000000  0.6234170999999999
  0.5054875700000000  0.1627347600000000  0.6249425900000000
  0.1671760000000000  0.8378364800000000  0.6243265700000000
  0.6527107900000000  0.0026356300000000  0.6250388000000000
  0.3214473600000000  0.6695815899999999  0.6281277000000000
  0.9952854700000000  0.6700413300000000  0.6206773000000000
  0.5043888000000000  0.8364813300000000  0.6282377800000000
  0.3248988500000000  0.9981088800000000  0.6264891100000000
