Mo  S  W 
 1.0000000000000000
     9.5549999999999997    0.0000000000000000    0.0000000000000000
     0.0000000000000000   16.5497450000000015    0.0000000000000000
     0.0000000000000000    0.0000000000000000   25.0000000000000000
  Mo   S   W
  18  72  18
Direct
  0.1661858700000000  0.0465061500000000  0.3784415199999999
  0.6669776400000000  0.5531321100000000  0.3786987900000000
  0.8278528800000000  0.3880753000000000  0.3749117900000000
  0.9971799400000000  0.2129450600000000  0.3730929800000000
  0.8325020700000000  0.0519251100000000  0.3718106100000000
  0.4952461900000000  0.3864508800000000  0.3816591800000000
  0.9889897299999999  0.8883009100000000  0.3760855499999999
  0.6598948500000000  0.8906451600000000  0.3759680700000000
  0.8411884400000000  0.7229490400000000  0.3791649899999999
  0.3333494600000000  0.5578536700000000  0.3800762499999999
  0.3337891200000000  0.8847901300000000  0.3784665600000000
  0.1612165900000000  0.3866671100000000  0.3778897900000000
  0.9930890300000002  0.5568436500000000  0.3763443700000000
  0.1621383300000000  0.7239252800000000  0.3769444500000000
  0.6596342400000000  0.2121329100000000  0.3781328700000000
  0.4985226600000000  0.0521868300000000  0.3765444999999999
  0.3190310600000000  0.2210088000000000  0.3758218500000000
  0.5003070700000000  0.7221113300000001  0.3835682699999999
  0.9935925899999999  0.3293260900000000  0.3156408900000000
  0.0038445900000000  0.6647588200000000  0.3170935800000000
  0.0037165400000000  0.9940361000000000  0.3127724000000000
  0.1688524100000000  0.1507934100000000  0.3155739800000000
  0.1697595600000000  0.5010506800000000  0.3178087500000000
  0.1665709900000000  0.8357100100000000  0.3169008800000000
  0.3260834900000000  0.3367620300000000  0.3137498100000000
  0.3468143400000000  0.6703013799999999  0.3179080800000000
  0.3303009800000000  0.9925583399999999  0.3124343100000000
  0.4789488300000000  0.1656399200000000  0.3153450100000000
  0.4983104799999999  0.4969889100000001  0.3211239200000000
  0.5027844800000000  0.8266957500000000  0.3143914200000000
  0.6484239400000000  0.3315856600000000  0.3188253100000000
  0.6712115900000000  0.6699566400000000  0.3219511800000000
  0.6594669800000000  0.0017432200000000  0.3081215500000000
  0.8249026400000000  0.1627287800000000  0.3134645400000000
  0.8291246600000000  0.5008095100000000  0.3119869900000000
  0.8254890000000000  0.8349921900000000  0.3162744300000000
  0.9991013399999999  0.6617278599999999  0.4407112500000000
  0.1615672300000000  0.1634339700000000  0.4393504700000000
  0.3173810100000000  0.3274573100000000  0.4391927500000000
  0.3302996800000000  0.6735506700000000  0.4440670100000000
  0.4916281000000000  0.1610896100000000  0.4400986500000000
  0.6673622500000000  0.3265581500000000  0.4401217100000000
  0.6715239600000000  0.6733589400000000  0.4407564800000000
  0.8242667800000000  0.1665426700000000  0.4357926800000000
  0.8237479000000000  0.8317720700000000  0.4382079600000000
  0.9934382400000000  0.3250258100000000  0.4377542000000000
  0.9872471500000001  0.0040683400000000  0.4393772699999999
  0.1613221100000000  0.5021136899999999  0.4403431400000000
  0.1599795800000000  0.8365635600000000  0.4385364700000000
  0.3424126900000000  0.9932893400000000  0.4426634400000000
  0.4908305000000000  0.5011423300000000  0.4414222700000000
  0.5035987400000000  0.8339110700000000  0.4411329700000000
  0.6637931600000000  0.0042419800000000  0.4359400300000000
  0.8300471500000000  0.4961427799999999  0.4393288400000000
  0.9939158900000000  0.2215765700000000  0.5633339300000000
  0.9860014499999999  0.5537838500000000  0.5592996700000000
  0.9973652900000001  0.8942416399999999  0.5652028800000000
  0.1716570400000000  0.0608208500000000  0.5628215400000000
  0.1636275600000000  0.3900047400000000  0.5571838000000000
  0.1627223100000000  0.7260408000000000  0.5558203300000000
  0.3333115100000000  0.2223726800000000  0.5588150800000000
  0.3345693900000000  0.5534592699999999  0.5587167800000000
  0.3412256400000000  0.8872717400000000  0.5591268900000000
  0.5060667500000000  0.0577101200000000  0.5572269800000000
  0.5051292800000000  0.3883470500000000  0.5585126500000001
  0.5062302100000000  0.7244168500000000  0.5609737000000000
  0.6735361399999999  0.2252663800000000  0.5613838000000000
  0.6649751300000000  0.5550188400000000  0.5606040300000000
  0.6695968100000000  0.8932705900000000  0.5600531000000000
  0.8323245800000000  0.0610188000000000  0.5653901400000000
  0.8389639900000001  0.3905533600000000  0.5625430000000000
  0.8453598600000000  0.7229212500000000  0.5618796200000000
  0.0060513900000000  0.5563607800000000  0.6842623900000000
  0.0023183900000000  0.8873886400000000  0.6850254799999999
  0.1782167100000000  0.0603238500000000  0.6861603700000000
  0.1783494900000000  0.3882847600000000  0.6860960000000000
  0.1743434000000000  0.7249547500000000  0.6826920500000000
  0.3279070900000000  0.5538246100000001  0.6848678300000001
  0.3355658600000000  0.8884087700000000  0.6805601700000000
  0.4926163500000000  0.0628071500000000  0.6888126100000000
  0.5037253100000000  0.3906479600000000  0.6824859000000000
  0.6651878500000000  0.5601560900000000  0.6889386700000000
  0.6626693700000000  0.8949725200000000  0.6851178300000000
  0.8325453800000000  0.0513068100000000  0.6891695799999999
  0.8405614400000000  0.3904354100000000  0.6860657900000000
  0.8475901700000001  0.7230886600000000  0.6848644499999998
  0.0042411000000000  0.2245012400000000  0.6870113100000000
  0.3433314800000000  0.2294678100000000  0.6871089700000000
  0.5037475900000000  0.7229981400000000  0.6848210000000000
  0.6621308000000000  0.2266308900000000  0.6858789900000000
  0.4976743700000000  0.4997609900000000  0.6220412900000000
  0.1728054300000000  0.1694663000000000  0.6244643200000000
  0.0016581400000000  0.0029217400000000  0.6263106500000000
  0.8342411900000000  0.8346021100000000  0.6235513100000000
  0.6730055300000000  0.6701565500000000  0.6249114600000000
  0.3345736600000000  0.3344391300000000  0.6217498700000000
  0.8285044000000000  0.1698882100000000  0.6284329200000000
  0.1660001900000000  0.4994232500000000  0.6205279900000000
  0.8272159400000000  0.5000893600000000  0.6254469700000000
  0.0099565300000000  0.3368504200000000  0.6256294900000000
  0.6697241900000001  0.3376729300000000  0.6223318500000000
  0.5072473800000000  0.1698288000000000  0.6210504600000000
  0.1692198400000000  0.8370670700000000  0.6188672400000000
  0.6640541800000000  0.0062631500000000  0.6242841600000000
  0.3359057900000000  0.6648738900000000  0.6231708400000000
  0.0065284800000000  0.6664248000000000  0.6221146700000000
  0.5054567800000000  0.8362441900000001  0.6220436600000000
  0.3368288300000000  0.0033690200000000  0.6227692300000000
