Mo  S  W 
 1.0000000000000000
     9.5549999999999997    0.0000000000000000    0.0000000000000000
     0.0000000000000000   16.5497450000000015    0.0000000000000000
     0.0000000000000000    0.0000000000000000   25.0000000000000000
  Mo   S   W
  18  72  18
Direct
  0.1691070100000000  0.0602790300000000  0.3771337500000000
  0.6723305000000001  0.5491893500000000  0.3771906000000000
  0.8429508400000000  0.3921957400000000  0.3789376300000000
  0.0027666200000000  0.2282129600000000  0.3753702200000000
  0.8385443100000000  0.0588180100000000  0.3792923800000000
  0.5044724900000001  0.3904630600000000  0.3746034200000000
  0.0062281500000000  0.8884451500000000  0.3812859500000000
  0.6768463100000000  0.8874831000000000  0.3766784500000000
  0.8466508900000000  0.7214868800000001  0.3779100800000000
  0.3407483200000000  0.5553790400000000  0.3783581400000000
  0.3399277300000000  0.8902753200000000  0.3803213900000000
  0.1738552600000000  0.3843150700000000  0.3767458800000000
  0.0014568400000000  0.5562244800000000  0.3775474500000000
  0.1761981300000000  0.7194422900000000  0.3772865400000000
  0.6690602100000000  0.2278125800000000  0.3807532900000000
  0.5059517400000000  0.0551582400000000  0.3793022999999999
  0.3332705900000000  0.2252208700000000  0.3761929900000000
  0.5038765300000000  0.7227326100000000  0.3761650900000000
  0.0018006900000000  0.3362900200000000  0.3132085500000000
  0.0062888200000000  0.6683534700000000  0.3119310800000000
  0.0014911500000000  0.9980255499999999  0.3185057200000000
  0.1648328400000000  0.1754495600000000  0.3099293800000000
  0.1710289400000000  0.5001217400000000  0.3151704200000000
  0.1770785400000000  0.8366179600000000  0.3180793400000000
  0.3408637000000000  0.3322951800000000  0.3172655900000000
  0.3388838400000000  0.6651156600000000  0.3130870600000000
  0.3359356900000000  0.0002034700000000  0.3179582400000000
  0.5050682800000000  0.1653486000000000  0.3201280500000000
  0.4922336500000000  0.5091246400000000  0.3126193800000000
  0.5035053500000000  0.8334673400000000  0.3190427900000000
  0.6706978700000000  0.3286729000000000  0.3131939800000000
  0.6705880100000000  0.6706883500000000  0.3169456900000000
  0.6720974199999999  0.0049701700000000  0.3173021000000000
  0.8348639400000000  0.1718213800000000  0.3142285400000000
  0.8352063100000000  0.5065326000000000  0.3132494700000000
  0.8311672800000000  0.8293232100000000  0.3149995700000000
  0.0125374000000000  0.6665489300000000  0.4414676500000000
  0.1591911500000000  0.1722449700000000  0.4414574000000001
  0.3408490500000000  0.3341467700000000  0.4397800500000000
  0.3459347000000000  0.6647241800000000  0.4386455600000000
  0.4941917200000000  0.1712021600000000  0.4400258400000000
  0.6703629500000000  0.3433024100000000  0.4397368800000001
  0.6766246100000000  0.6703744800000000  0.4381405800000000
  0.8358117400000000  0.1722943000000000  0.4392296100000000
  0.8426588299999999  0.8352661100000000  0.4402803900000000
  0.0054497000000000  0.3364250400000000  0.4390196000000000
  0.0066075300000000  0.9989249100000001  0.4432382400000000
  0.1664545600000000  0.4949043900000000  0.4359907300000000
  0.1863022700000000  0.8306439500000000  0.4405581700000000
  0.3276821800000000  0.0100854600000000  0.4380495000000000
  0.5077954900000000  0.4991794300000000  0.4443602600000000
  0.5074978200000000  0.8317751300000000  0.4416528700000000
  0.6749343900000000  0.0047442500000000  0.4394194700000000
  0.8427924700000000  0.5063274600000000  0.4410488700000000
  0.0046699000000000  0.2222517600000000  0.5643760700000000
  0.0049976600000000  0.5598792000000000  0.5580790300000000
  0.9942550800000000  0.8903343100000000  0.5593405600000000
  0.1518069100000000  0.0520140600000000  0.5619609400000000
  0.1594211900000000  0.3834434400000000  0.5640441700000000
  0.1626366700000000  0.7266628200000000  0.5623546500000000
  0.3353916200000000  0.2205619400000000  0.5629447100000000
  0.3181894700000000  0.5627666500000000  0.5607525400000000
  0.3340709300000000  0.8851991700000000  0.5576714400000000
  0.4907172299999999  0.0508852600000000  0.5599393499999999
  0.4936740300000000  0.3906235400000000  0.5579244600000000
  0.4969765100000000  0.7207486500000000  0.5615852400000000
  0.6711797600000000  0.2160725100000000  0.5600782900000000
  0.6594895100000000  0.5576127000000000  0.5595599900000000
  0.6661927900000000  0.8829488000000000  0.5617727300000001
  0.8262049600000000  0.0555263600000000  0.5614028000000000
  0.8263974700000000  0.3878799800000000  0.5625237700000000
  0.8238942700000000  0.7231847500000000  0.5609802900000000
  0.0015477500000000  0.5590906000000000  0.6836523300000000
  0.9950055799999999  0.8937964600000000  0.6901568700000000
  0.1587330500000000  0.0513173300000000  0.6877239500000001
  0.1694604700000000  0.3893591200000000  0.6863481500000000
  0.1589259200000000  0.7242110500000000  0.6861795900000000
  0.3336635900000000  0.5556089200000000  0.6838724300000000
  0.3297901200000000  0.8907557200000000  0.6852268599999999
  0.4935059400000000  0.0536230600000000  0.6822836300000000
  0.4957998900000000  0.3889135900000000  0.6844694099999999
  0.6631622200000000  0.5547486200000000  0.6812861900000000
  0.6655444000000000  0.8855241100000000  0.6882861600000000
  0.8178762600000000  0.0517887100000000  0.6864628600000000
  0.8310203600000000  0.3955194800000000  0.6871863499999999
  0.8215857300000000  0.7228715999999999  0.6872734800000001
  0.0125577800000000  0.2174372200000000  0.6862420100000000
  0.3425925900000000  0.2210566100000000  0.6838080400000000
  0.4919288700000000  0.7232227700000000  0.6879471100000000
  0.6686493600000000  0.2180052800000000  0.6848280000000000
  0.4931600900000000  0.5002567800000000  0.6203257500000000
  0.1735445200000000  0.1615491700000000  0.6260108200000000
  0.9781066500000000  0.0000773500000000  0.6229053800000000
  0.8346679100000000  0.8327663500000000  0.6241378800000000
  0.6611622500000000  0.6680920600000000  0.6223646400000000
  0.3316698400000000  0.3316134400000000  0.6238237000000000
  0.8435424499999999  0.1650199700000000  0.6249249200000000
  0.1631287900000000  0.5016483100000000  0.6223226700000000
  0.8412876400000000  0.5028546100000000  0.6205062300000000
  0.9912948600000000  0.3365998900000000  0.6270292200000001
  0.6601146200000000  0.3339510300000000  0.6223370200000000
  0.5012415500000000  0.1608595800000000  0.6201799900000000
  0.1662509400000000  0.8347179500000000  0.6240336000000000
  0.6595491600000000  0.9945648600000001  0.6204416100000000
  0.3238504500000000  0.6728696400000000  0.6244826800000000
  0.9914489699999999  0.6711515600000000  0.6225974200000000
  0.5015116300000000  0.8332710300000000  0.6241388700000000
  0.3250421100000000  0.0005874400000000  0.6207212400000000
