HEX (hexagonal) M-G-K-M
26   
Line-mode
reciprocal
   0.500   0.000   0.000   ! M
   0.000   0.000   0.000   ! \Gamma

   0.000   0.000   0.000   ! \Gamma
   0.3333  0.3333  0.000   ! K

   0.3333  0.3333  0.000   ! K
   0.500   0.000   0.000   ! M
