convert from MoS2WS2C7.car  14:23:52 03/
   1.00000000000000     
     3.1865000000000001    0.0000000000000000    0.0000000000000000
    -1.5932500000000001    2.7595899490000000    0.0000000000000000
     0.0000000000000000    0.0000000000000000   20.0000000000000000
   S    Mo    W
     4     1     1
Selective dynamics
Direct
  0.6583430106392676  0.3475546599624718  0.6921646128301175   T   T   T
  0.6583454565881856  0.3474114454519810  0.5359104366203443   T   T   T
 -0.0015225131733631 -0.0005245991582879  0.3850087820014777   T   T   T
 -0.0013748275949176 -0.0006573710543001  0.2290941859658214   T   T   T
  0.6651327189758123  0.3326937991249479  0.3070778206508082   T   T   T
  0.9916713279473364  0.0141316084208688  0.6139628286314363   T   T   T
 
  0.00000000E+00  0.00000000E+00  0.00000000E+00
  0.00000000E+00  0.00000000E+00  0.00000000E+00
  0.00000000E+00  0.00000000E+00  0.00000000E+00
  0.00000000E+00  0.00000000E+00  0.00000000E+00
  0.00000000E+00  0.00000000E+00  0.00000000E+00
  0.00000000E+00  0.00000000E+00  0.00000000E+00
