Mo  S  W 
 1.0000000000000000
     9.5549999999999997    0.0000000000000000    0.0000000000000000
     0.0000000000000000   16.5497450000000015    0.0000000000000000
     0.0000000000000000    0.0000000000000000   25.0000000000000000
  Mo   S   W
  18  72  18
Direct
  0.1707140700000000  0.0532598200000000  0.3756571800000000
  0.6669435900000000  0.5552375899999999  0.3755504700000000
  0.8349390500000000  0.3882706600000000  0.3748004000000000
  0.0115424900000000  0.2177409100000000  0.3737618900000000
  0.8400753900000001  0.0552626600000000  0.3723600400000000
  0.5086836500000000  0.3839631100000000  0.3799577100000000
  0.0010064500000000  0.8874746800000000  0.3726026599999999
  0.6746936300000000  0.8902946700000000  0.3742509900000000
  0.8403708800000000  0.7220383600000000  0.3741585800000000
  0.3416941100000000  0.5593137700000000  0.3733613200000000
  0.3468763800000000  0.8866217900000000  0.3723147200000000
  0.1775736300000000  0.3900290300000000  0.3717254000000000
  0.0080980700000000  0.5566194900000000  0.3731280100000000
  0.1656387800000000  0.7261664500000000  0.3749808600000000
  0.6764906100000000  0.2207360000000000  0.3743565600000000
  0.4995248999999999  0.0499571300000000  0.3728586600000000
  0.3341186700000000  0.2205892700000000  0.3736896500000000
  0.5062118300000000  0.7231412400000000  0.3747124100000000
  0.0087115800000000  0.3270258800000000  0.3139866800000000
  0.0107652900000000  0.6703339100000000  0.3134932000000000
  0.0073651300000000  0.0026463000000000  0.3147413700000000
  0.1769999300000000  0.1593963400000000  0.3095800400000000
  0.1790729600000000  0.5042948100000000  0.3098619500000000
  0.1749625200000000  0.8344268400000000  0.3121642600000000
  0.3467181800000000  0.3367963600000000  0.3159232100000000
  0.3373932900000000  0.6735214500000000  0.3116914000000000
  0.3455205700000000  0.9957802699999999  0.3100881400000000
  0.5054413100000000  0.1697990600000000  0.3138826100000000
  0.5052727700000000  0.4939066700000000  0.3146566100000000
  0.5219394700000000  0.8302385300000000  0.3111526200000000
  0.6781468300000000  0.3265526500000000  0.3165463500000000
  0.6720677500000000  0.6679048900000000  0.3136270500000000
  0.6642856200000000  0.0032924000000000  0.3106740800000000
  0.8395509500000000  0.1660491700000000  0.3105412500000000
  0.8418978200000000  0.4965119700000000  0.3135156600000000
  0.8286669500000000  0.8305019000000000  0.3120882300000000
  0.9949676200000001  0.6633232200000000  0.4380899700000000
  0.1833717400000000  0.1614437800000000  0.4377659900000000
  0.3407034300000000  0.3327114400000000  0.4398038800000000
  0.3328570300000000  0.6721237300000000  0.4359849500000000
  0.4974524300000000  0.1617180900000000  0.4323413800000000
  0.6720213300000000  0.3288641600000000  0.4383275000000000
  0.6695911200000000  0.6619704500000000  0.4344241300000000
  0.8537353000000000  0.1644751300000000  0.4353615100000001
  0.8321167300000000  0.8311759100000000  0.4341036100000000
  0.0101451700000000  0.3340805400000000  0.4330922800000000
  0.0014966300000000  0.0029449900000000  0.4378235500000000
  0.1785992000000000  0.5018666100000000  0.4322549700000000
  0.1668164500000000  0.8439526100000000  0.4374970100000000
  0.3469137400000000  0.9935120099999999  0.4381829800000000
  0.5012435500000000  0.4964254800000000  0.4370307700000000
  0.5094570700000000  0.8294885600000000  0.4386949800000000
  0.6722504800000000  0.9955813900000000  0.4381089500000000
  0.8385932100000001  0.4943408500000001  0.4390310200000000
  0.9967162799999999  0.2214700000000000  0.5652471999999999
  0.0001560300000000  0.5598678100000000  0.5603984600000000
  0.9986765399999999  0.8887266600000000  0.5626056300000000
  0.1597135800000000  0.0582978700000000  0.5661256500000000
  0.1573862500000000  0.3871181900000000  0.5649164700000000
  0.1671398100000000  0.7353229800000000  0.5645086300000000
  0.3341633000000000  0.2180686800000000  0.5650613400000000
  0.3240150500000000  0.5619254100000000  0.5626197900000000
  0.3401715500000000  0.8852022200000000  0.5625959699999999
  0.4912262200000000  0.0523259800000000  0.5598708700000000
  0.4911853700000000  0.3904572900000000  0.5643049900000000
  0.4924073999999999  0.7251886000000000  0.5664746899999999
  0.6634149000000000  0.2227153600000000  0.5615766500000000
  0.6563731500000000  0.5648260700000000  0.5605985400000000
  0.6557616600000000  0.8870565700000000  0.5647478100000000
  0.8240421700000000  0.0559342400000000  0.5613183400000000
  0.8298962800000000  0.3856531000000000  0.5630995000000000
  0.8365830500000000  0.7193214100000000  0.5598430400000000
  0.9895709900000000  0.5608357200000000  0.6838623700000001
  0.9875429999999999  0.8928682400000000  0.6872808500000001
  0.1617827300000000  0.0509306200000000  0.6894536500000001
  0.1638386300000000  0.3941145700000000  0.6888805400000000
  0.1583262200000000  0.7276870800000000  0.6884398000000000
  0.3337397100000000  0.5570736400000000  0.6904021500000000
  0.3298045900000000  0.8911432300000000  0.6923023699999998
  0.4924296400000000  0.0523810500000000  0.6861270600000000
  0.4932521400000001  0.3841831500000000  0.6857652100000000
  0.6635246400000000  0.5588868700000000  0.6864287800000000
  0.6807385500000001  0.8884583700000001  0.6860713300000001
  0.8249057700000000  0.0535292800000000  0.6840765300000000
  0.8315749400000000  0.3949608600000000  0.6843474300000000
  0.8355312900000000  0.7227299800000000  0.6865409300000000
  0.9949890100000000  0.2219574800000000  0.6887029300000000
  0.3360405900000000  0.2199693600000000  0.6921257400000000
  0.4978385300000000  0.7244704700000000  0.6900688400000000
  0.6647080500000000  0.2222279400000000  0.6869639900000000
  0.4947244400000000  0.5044664900000000  0.6261640100000000
  0.1629813400000000  0.1666253500000000  0.6303199900000001
  0.9912511600000000  0.0003126800000000  0.6232829000000000
  0.8380244400000001  0.8309287200000000  0.6242240300000000
  0.6635138500000000  0.6713100600000000  0.6243538400000000
  0.3198320900000000  0.3302834600000000  0.6274258200000000
  0.8276703000000000  0.1660860900000000  0.6240754400000000
  0.1632837700000000  0.5051725500000001  0.6247787500000000
  0.8221813300000000  0.5062851700000000  0.6204171700000000
  0.9978430599999999  0.3330729400000000  0.6264286500000000
  0.6604472400000000  0.3326459800000000  0.6244870000000000
  0.5053744000000000  0.1631755300000000  0.6242431300000000
  0.1651785200000000  0.8430969300000000  0.6269872100000000
  0.6567022900000000  0.9998867900000001  0.6241570300000000
  0.3292627600000000  0.6721951800000000  0.6283023100000000
  0.0006280000000000  0.6713363200000000  0.6228763400000000
  0.5011992199999999  0.8342892500000000  0.6291390100000001
  0.3264698500000000  0.9962500099999999  0.6234087100000000
