Mo  S  W 
 1.0000000000000000
     9.5549999999999997    0.0000000000000000    0.0000000000000000
     0.0000000000000000   16.5497450000000015    0.0000000000000000
     0.0000000000000000    0.0000000000000000   25.0000000000000000
  Mo   S   W
  18  72  18
Direct
  0.1612101300000000  0.0559424600000000  0.3711688400000000
  0.6695711300000000  0.5539857500000001  0.3739259300000001
  0.8345290100000000  0.3886712900000000  0.3722466500000000
  0.9881024699999998  0.2237116000000000  0.3700428300000000
  0.8343524200000000  0.0552707500000000  0.3707637300000000
  0.4868440100000000  0.3920475700000000  0.3746172500000000
  0.9987480399999999  0.8920466200000000  0.3698343900000001
  0.6695555900000000  0.8862045300000000  0.3741640800000001
  0.8311569100000000  0.7242928100000000  0.3750693399999999
  0.3307506100000000  0.5567546500000000  0.3775389000000000
  0.3215599800000000  0.8942855900000000  0.3737900300000000
  0.1567099800000000  0.3914072800000000  0.3734189600000001
  0.9954558000000000  0.5554147100000000  0.3753424400000000
  0.1699821100000000  0.7190064200000000  0.3712554300000000
  0.6562028000000000  0.2210674000000000  0.3737589900000000
  0.4964325900000001  0.0579391600000000  0.3726420000000000
  0.3349736200000000  0.2221266600000000  0.3727880000000001
  0.4992517699999999  0.7212173400000000  0.3772212500000000
  0.9974137800000001  0.3341978400000000  0.3082144600000000
  0.9940812700000000  0.6666511100000000  0.3117970600000000
  0.9985861600000000  0.9996689400000000  0.3033918200000000
  0.1661311500000000  0.1681405400000000  0.3102853900000000
  0.1568247500000000  0.5068440900000000  0.3151224900000000
  0.1764585600000000  0.8317337100000000  0.3057166800000000
  0.3224671300000000  0.3365199100000000  0.3082041700000000
  0.3362585700000000  0.6633341800000000  0.3135199600000000
  0.3297537700000000  0.0038158800000000  0.3104521900000000
  0.4917331700000000  0.1677066800000000  0.3092487300000000
  0.4983709000000000  0.5014816600000001  0.3116416600000000
  0.4904205800000000  0.8394931400000000  0.3124486200000000
  0.6589259800000000  0.3381059000000000  0.3146228900000000
  0.6670488000000000  0.6741203099999999  0.3129040700000000
  0.6602604100000000  0.9948951400000001  0.3093975800000000
  0.8192952700000000  0.1673187900000000  0.3117600100000000
  0.8349633000000000  0.4969562000000000  0.3094495400000000
  0.8222561400000000  0.8393955700000000  0.3138732000000000
  0.0069222900000000  0.6746952400000000  0.4353862200000000
  0.1595852600000000  0.1689902000000000  0.4315542000000000
  0.3262741000000000  0.3366374400000000  0.4335055100000000
  0.3273879100000000  0.6674419600000000  0.4384839300000000
  0.5005799700000000  0.1660877700000000  0.4357310000000000
  0.6580498500000000  0.3353257000000000  0.4319198799999999
  0.6684810300000000  0.6696659000000000  0.4346990600000000
  0.8311518800000000  0.1683462800000000  0.4351476200000001
  0.8304377800000000  0.8365989400000000  0.4351552500000000
  0.9885713100000000  0.3306680700000000  0.4359559000000000
  0.0034135700000000  0.0007402000000000  0.4293583400000000
  0.1598149600000000  0.4997700700000000  0.4421937000000000
  0.1678469900000000  0.8339924800000000  0.4355606700000000
  0.3283092000000000  0.0063725700000000  0.4366489500000000
  0.5036098200000000  0.5041817200000001  0.4344563700000000
  0.4955051100000000  0.8383056200000000  0.4351793000000000
  0.6617538400000000  0.0006689600000000  0.4370430300000001
  0.8334003000000000  0.5010426100000001  0.4391073800000000
  0.9991433199999999  0.2163642000000000  0.5664729600000000
  0.0054486500000000  0.5584230800000000  0.5640568500000001
  0.9991037800000000  0.8914595500000000  0.5635072800000001
  0.1587714100000000  0.0517467500000000  0.5639459700000000
  0.1627296600000000  0.3865836700000000  0.5653988700000000
  0.1666152100000000  0.7202442000000000  0.5603303400000000
  0.3346367500000000  0.2135734900000000  0.5599644300000000
  0.3327066800000000  0.5576284400000000  0.5629897300000000
  0.3315758600000000  0.8894913100000000  0.5604945500000000
  0.5086752700000000  0.0518831600000000  0.5581076100000000
  0.5024613600000000  0.3876946400000000  0.5620081099999999
  0.5021956700000000  0.7259460400000000  0.5645428000000000
  0.6731152300000000  0.2266090700000000  0.5610516600000000
  0.6656739500000000  0.5616554100000000  0.5655273300000000
  0.6661616600000000  0.8853650199999999  0.5628397300000000
  0.8331494200000000  0.0561520800000000  0.5666810600000000
  0.8502487900000001  0.3872427200000000  0.5639183500000000
  0.8299443800000000  0.7221654100000000  0.5624579300000000
  0.0004961100000000  0.5585923100000000  0.6901799199999999
  0.9996215799999999  0.8821683700000000  0.6879099400000002
  0.1715610900000000  0.0496995800000000  0.6893782400000000
  0.1808350600000000  0.3867018500000000  0.6885553300000001
  0.1717064400000000  0.7263305500000000  0.6864886800000000
  0.3304130600000000  0.5628253600000001  0.6903323900000001
  0.3336935000000000  0.8887220100000000  0.6875317800000000
  0.5027331900000001  0.0548855900000000  0.6889657000000000
  0.4960221700000000  0.3908256600000000  0.6870142000000000
  0.6614361200000000  0.5576961499999999  0.6885710499999999
  0.6748412600000000  0.8881263100000000  0.6865934800000000
  0.8331975500000000  0.0546297600000000  0.6888774300000000
  0.8350603900000000  0.3914769400000000  0.6863114700000000
  0.8354254800000001  0.7246982500000000  0.6900631600000000
  0.0069247700000000  0.2221698900000000  0.6918984800000000
  0.3428345200000000  0.2154944100000000  0.6869412900000000
  0.5083905300000000  0.7273463999999999  0.6886975400000001
  0.6606829100000000  0.2223689500000000  0.6876400900000000
  0.4938887500000000  0.5058199200000000  0.6262871200000000
  0.1699540000000000  0.1615261500000000  0.6287514500000000
  0.0016776300000000  0.9973457600000000  0.6286494700000000
  0.8405759200000000  0.8344563400000000  0.6255618500000000
  0.6722272100000000  0.6698443700000000  0.6281292200000000
  0.3353071400000000  0.3303321500000000  0.6238961300000000
  0.8308305900000000  0.1656635500000000  0.6292159200000000
  0.1719304800000000  0.4989829000000000  0.6272470200000000
  0.8334859700000000  0.5057121800000000  0.6263380400000000
  0.0044488400000000  0.3288399700000000  0.6287078699999999
  0.6710450800000000  0.3351621900000000  0.6224700700000000
  0.5075321000000000  0.1616977600000000  0.6227506400000000
  0.1692065300000000  0.8318108900000000  0.6251315900000000
  0.6610221400000000  0.9985694300000000  0.6251480500000000
  0.3372533700000000  0.6726701400000000  0.6268771300000000
  0.0026768600000000  0.6704579400000000  0.6250570700000000
  0.5016891700000000  0.8358456900000000  0.6258487800000000
  0.3393287600000000  0.9979393600000002  0.6244052500000000
