Mo  S  W 
 1.0000000000000000
     9.5549999999999997    0.0000000000000000    0.0000000000000000
     0.0000000000000000   16.5497450000000015    0.0000000000000000
     0.0000000000000000    0.0000000000000000   25.0000000000000000
  Mo   S   W
  18  72  18
Direct
  0.1602297600000000  0.0572168900000000  0.3789371100000000
  0.6694434600000000  0.5552593200000000  0.3754188100000000
  0.8239863900000000  0.3881592800000000  0.3746123000000000
  0.9995993700000001  0.2193338200000000  0.3781241900000001
  0.8181546600000000  0.0537486100000000  0.3769824700000000
  0.4958933200000000  0.3890640200000000  0.3768231400000000
  0.9974258899999999  0.8872866500000000  0.3753117800000000
  0.6564865600000001  0.8943026400000000  0.3757487600000000
  0.8267146600000000  0.7267787100000000  0.3717198600000000
  0.3301780200000000  0.5569224699999999  0.3746716100000000
  0.3274496400000000  0.8879861500000000  0.3772368200000000
  0.1549745800000000  0.3885949000000000  0.3732529000000000
  0.9912841100000001  0.5577590600000000  0.3711679000000000
  0.1663045700000000  0.7246974800000000  0.3735862900000000
  0.6556189000000000  0.2215629600000000  0.3745961500000000
  0.5011426400000000  0.0526825800000000  0.3750766300000000
  0.3284863900000000  0.2210644700000000  0.3812667800000000
  0.4959370200000001  0.7194987200000000  0.3726506400000000
  0.9928474800000000  0.3348235200000000  0.3150192000000000
  0.9866032100000000  0.6688892100000000  0.3095424600000000
  0.9902699399999999  0.0031629200000000  0.3128957200000000
  0.1663591000000000  0.1665187900000000  0.3138105400000000
  0.1619080900000000  0.4998029800000000  0.3116720500000000
  0.1671864600000000  0.8383129600000000  0.3105922600000000
  0.3396569100000000  0.3291099600000000  0.3121380800000000
  0.3298109800000000  0.6694721600000000  0.3116478300000000
  0.3223720300000000  0.0038883200000000  0.3176941000000000
  0.4878336500000000  0.1633137300000000  0.3183594900000000
  0.4986231999999999  0.4986234700000000  0.3155363200000000
  0.4914969300000000  0.8361625300000000  0.3167608300000000
  0.6588686800000000  0.3409320700000000  0.3116082100000000
  0.6589314800000000  0.6721441200000000  0.3094226900000000
  0.6679545099999999  0.0036970600000000  0.3097965300000000
  0.8266834100000000  0.1695578400000000  0.3152561700000000
  0.8212766500000001  0.5004741000000000  0.3075477700000000
  0.8247048300000001  0.8418326200000000  0.3097667200000000
  0.9923713700000001  0.6714191100000000  0.4390482400000000
  0.1596414500000000  0.1662883200000000  0.4440741800000000
  0.3235862400000000  0.3354556900000000  0.4377996700000000
  0.3315278400000000  0.6674550299999999  0.4361395200000000
  0.5125388900000000  0.1623699200000000  0.4430895899999999
  0.6645422800000000  0.3335537700000000  0.4396466800000000
  0.6633259200000000  0.6761475200000000  0.4353382399999999
  0.8237577500000000  0.1689825700000000  0.4403537100000000
  0.8227915500000000  0.8313737700000000  0.4364638000000000
  0.9961461500000000  0.3307877700000000  0.4407527000000001
  0.9935089100000000  0.9952637400000000  0.4354757400000000
  0.1607902900000000  0.5061761800000000  0.4353369800000000
  0.1661820400000000  0.8279082800000001  0.4371733500000000
  0.3238963500000000  0.9992715400000000  0.4373657700000000
  0.4996795000000000  0.5061067800000000  0.4407905200000000
  0.4978562900000000  0.8283998900000000  0.4366744900000000
  0.6615482700000000  0.0033048700000000  0.4425310600000000
  0.8384521900000000  0.5058397900000000  0.4359723100000000
  0.9936971000000001  0.2220637800000000  0.5622278700000000
  0.9962350399999998  0.5518443400000000  0.5633213300000000
  0.0132300800000000  0.8902609200000000  0.5624886800000000
  0.1715975300000000  0.0578677100000000  0.5634538000000000
  0.1641030700000000  0.3879692300000000  0.5631402000000000
  0.1686862300000000  0.7168988700000000  0.5644051700000000
  0.3267237500000000  0.2270887900000000  0.5621437300000000
  0.3283531100000000  0.5533150400000000  0.5632477100000000
  0.3346316500000000  0.8858176900000000  0.5574868800000000
  0.5066337100000000  0.0575149500000000  0.5640935400000000
  0.5148628100000000  0.3927980300000000  0.5595418300000000
  0.5109602600000001  0.7182358700000000  0.5638360800000000
  0.6708516000000000  0.2256354800000000  0.5585598700000000
  0.6678398600000000  0.5550826000000000  0.5646436200000000
  0.6711200400000000  0.8925282000000000  0.5591300299999999
  0.8365109900000000  0.0554312000000000  0.5639642000000000
  0.8432104200000000  0.3919787700000000  0.5609667900000000
  0.8497249900000000  0.7194911600000000  0.5627254900000001
  0.0004924700000000  0.5531502100000000  0.6885356300000000
  0.0004757900000000  0.8882800000000000  0.6886103600000000
  0.1786681100000000  0.0603030600000000  0.6882674600000001
  0.1752834400000000  0.3825466100000000  0.6888805800000000
  0.1763488200000000  0.7186285100000001  0.6846953200000000
  0.3279684200000000  0.5506204400000000  0.6895190799999998
  0.3283649000000000  0.8862372100000000  0.6832731800000000
  0.5018331700000001  0.0617349300000000  0.6832858500000001
  0.5080203400000000  0.3862896500000000  0.6842433199999999
  0.6627015300000000  0.5478254500000000  0.6879849000000000
  0.6591022600000001  0.8925978200000000  0.6824675100000001
  0.8360911600000001  0.0579124400000000  0.6870806200000000
  0.8356792900000000  0.3891678300000000  0.6873599800000000
  0.8425230800000000  0.7248710200000000  0.6878177199999999
  0.9999834800000001  0.2241867600000000  0.6877034500000001
  0.3387375400000000  0.2257902400000000  0.6857131900000000
  0.5153343500000001  0.7223751700000000  0.6852774600000001
  0.6638723300000000  0.2232867700000000  0.6854792199999999
  0.4958981900000000  0.5008146900000000  0.6248415600000000
  0.1668076900000000  0.1699653800000000  0.6249567700000001
  0.0041951700000000  0.0030395200000000  0.6280641400000000
  0.8373209200000000  0.8356233199999999  0.6228022000000000
  0.6766039100000000  0.6624012000000000  0.6264089100000000
  0.3418214100000000  0.3333680300000000  0.6229582800000000
  0.8349308500000000  0.1741208200000000  0.6257338900000000
  0.1640966600000000  0.4967207600000000  0.6267455400000000
  0.8315124200000000  0.4992394900000001  0.6270081700000000
  0.0069334800000000  0.3333221600000000  0.6256159300000000
  0.6772520000000000  0.3342519300000000  0.6212997400000000
  0.5012253100000000  0.1724914400000000  0.6209515799999999
  0.1692896400000000  0.8271912400000000  0.6235207699999999
  0.6686008500000000  0.0026721800000000  0.6231208100000000
  0.3441603900000000  0.6622306200000000  0.6253962400000000
  0.0058020900000000  0.6644433700000000  0.6264128400000000
  0.4970318700000000  0.8340167400000000  0.6217299200000000
  0.3384822500000000  0.0035299800000000  0.6257377000000000
