Mo  S  W 
 1.0000000000000000
     9.5549999999999997    0.0000000000000000    0.0000000000000000
     0.0000000000000000   16.5497450000000015    0.0000000000000000
     0.0000000000000000    0.0000000000000000   25.0000000000000000
  Mo   S   W
  18  72  18
Direct
  0.1691032700000000  0.0527615100000000  0.3689743600000000
  0.6676119700000001  0.5579961900000000  0.3756808400000000
  0.8270072300000000  0.3856620900000000  0.3739437500000000
  0.0010239500000000  0.2183040000000000  0.3728437800000000
  0.8291030100000000  0.0581067800000000  0.3724347800000000
  0.4917214900000000  0.3934071100000000  0.3716133400000000
  0.9924358800000002  0.8913553700000000  0.3761982200000000
  0.6671534099999999  0.8960949700000000  0.3744472600000000
  0.8214945800000000  0.7329554400000000  0.3779367000000000
  0.3291199300000000  0.5625612200000000  0.3725738500000000
  0.3315716900000000  0.8917922600000000  0.3718737600000000
  0.1654307500000000  0.3945970000000000  0.3687702700000000
  0.9967517100000000  0.5604599500000000  0.3760479600000000
  0.1622743800000000  0.7256093800000000  0.3786221700000000
  0.6653385200000000  0.2261398700000000  0.3684887500000000
  0.4962390199999999  0.0534272800000000  0.3668481500000000
  0.3313403700000000  0.2176766700000000  0.3701714700000000
  0.5029312200000000  0.7259781800000000  0.3735217600000000
  0.9918305400000000  0.3387637000000000  0.3134936100000000
  0.9824537000000000  0.6739646900000000  0.3209421600000000
  0.9996261100000000  0.9977765700000001  0.3117774900000000
  0.1627348800000000  0.1609133000000000  0.3091611200000000
  0.1556751400000000  0.5116099500000000  0.3103635500000000
  0.1531533400000000  0.8403281300000000  0.3147557800000000
  0.3414297600000000  0.3339979100000000  0.3065239500000000
  0.3306013800000000  0.6741583700000000  0.3112874500000000
  0.3253649800000000  0.9975538900000002  0.3035834000000000
  0.4923599200000000  0.1645381300000000  0.3077016000000000
  0.4963542799999999  0.5051671500000000  0.3140214500000000
  0.4930157600000000  0.8378990400000000  0.3093824300000000
  0.6543670900000000  0.3409796100000000  0.3089492800000000
  0.6695469500000000  0.6644612300000000  0.3131502300000000
  0.6777663600000000  0.9949782500000001  0.3052867100000000
  0.8404562299999999  0.1656587400000000  0.3102726600000000
  0.8305800500000000  0.4954623400000000  0.3126212600000000
  0.8318591300000000  0.8405187500000000  0.3145762300000000
  0.9980336300000000  0.6770870400000000  0.4376871300000000
  0.1630515300000000  0.1594154600000000  0.4352808800000000
  0.3241119300000000  0.3337605700000000  0.4277193300000001
  0.3414058300000000  0.6693846700000000  0.4375875399999999
  0.5014539700000000  0.1630255400000000  0.4324242300000000
  0.6483257200000000  0.3319568200000000  0.4318779100000000
  0.6659696700000000  0.6713424500000000  0.4401090200000000
  0.8297068200000000  0.1648853400000000  0.4341071300000000
  0.8173642700000000  0.8409453000000000  0.4397276400000000
  0.9898423000000000  0.3310661500000000  0.4348145100000000
  0.0055236400000000  0.0000889300000000  0.4353633900000000
  0.1625035200000000  0.5044837500000000  0.4343822900000000
  0.1745746800000000  0.8350343700000000  0.4376679500000000
  0.3370053400000000  0.0022454300000000  0.4335449600000000
  0.4969172800000000  0.5014988400000000  0.4375247700000000
  0.4993785300000000  0.8399474200000000  0.4362609500000000
  0.6510048000000001  0.0068048100000000  0.4314967300000000
  0.8431622900000000  0.4964066100000000  0.4341176800000000
  0.0013044300000000  0.2155744600000000  0.5589832600000000
  0.0073172100000000  0.5530142600000000  0.5636203900000000
  0.0136337600000000  0.8869900600000000  0.5625673000000000
  0.1761679800000000  0.0484720600000000  0.5649710900000000
  0.1637636300000000  0.3868192400000000  0.5643666600000000
  0.1642244800000000  0.7179955500000000  0.5613668400000000
  0.3365188800000000  0.2260663700000000  0.5644592500000000
  0.3439084000000000  0.5573849000000000  0.5645228799999999
  0.3418243800000000  0.8908763300000000  0.5647526200000000
  0.4998465900000000  0.0576489300000000  0.5663257700000000
  0.5063279300000000  0.3895833700000000  0.5653784100000000
  0.4945678300000000  0.7238274800000000  0.5626829100000000
  0.6655841100000000  0.2214775800000000  0.5646452700000000
  0.6743605100000000  0.5605783900000000  0.5621683300000000
  0.6742970900000000  0.8896806300000000  0.5628751000000000
  0.8293536000000000  0.0487765300000000  0.5621091200000000
  0.8224649000000001  0.3901524700000000  0.5656193200000000
  0.8284367100000000  0.7226766000000000  0.5626295400000000
  0.0126431200000000  0.5548719600000001  0.6889328000000000
  0.0045912800000000  0.8879705500000000  0.6887330699999999
  0.1638999300000000  0.0527597900000000  0.6890022800000000
  0.1570197900000000  0.3867235600000000  0.6884057699999999
  0.1634627200000000  0.7211391700000001  0.6906366700000000
  0.3338164800000000  0.5548091000000001  0.6904535299999999
  0.3341775400000000  0.8836447700000000  0.6913763000000001
  0.4986236999999999  0.0562115800000000  0.6962049000000000
  0.4986003500000000  0.3895251500000000  0.6887909100000000
  0.6704290100000000  0.5559242599999999  0.6904163900000000
  0.6675739100000000  0.8890373499999999  0.6875412500000000
  0.8420697100000000  0.0567654800000000  0.6868181100000001
  0.8290834900000000  0.3897539100000000  0.6877890600000000
  0.8237525100000000  0.7246880100000000  0.6879426000000000
  0.0061059000000000  0.2192342900000000  0.6850479500000000
  0.3312410700000000  0.2212325300000000  0.6915957100000000
  0.5055679199999999  0.7214183500000000  0.6912609100000000
  0.6758676400000000  0.2145763700000000  0.6911954999999999
  0.5063223000000000  0.5032187800000000  0.6285275800000000
  0.1700918600000000  0.1619899300000000  0.6229711400000000
  0.9998043299999999  0.9955374799999999  0.6245577400000000
  0.8419479499999999  0.8340916200000000  0.6244562500000000
  0.6640248200000000  0.6685694300000000  0.6238514900000000
  0.3298055200000000  0.3326405300000000  0.6288281999999999
  0.8368474400000000  0.1659953100000000  0.6239813900000000
  0.1766532000000000  0.4997399300000001  0.6250159500000000
  0.8398359900000000  0.5026795400000000  0.6280076100000000
  0.9956294600000001  0.3325067100000000  0.6218965800000000
  0.6659178800000000  0.3287197300000000  0.6275829100000000
  0.5019745000000000  0.1674733700000000  0.6300082000000000
  0.1743574200000000  0.8301304600000000  0.6252479399999999
  0.6665554500000000  0.9995053099999999  0.6282695600000000
  0.3349034200000000  0.6676765200000000  0.6254497900000000
  0.9930430699999999  0.6658724800000000  0.6262742100000001
  0.4994278900000000  0.8366906700000000  0.6250927100000000
  0.3404753900000000  0.9972029500000001  0.6296467100000001
