Mo  S  W 
 1.0000000000000000
     9.5549999999999997    0.0000000000000000    0.0000000000000000
     0.0000000000000000   16.5497450000000015    0.0000000000000000
     0.0000000000000000    0.0000000000000000   25.0000000000000000
  Mo   S   W
  18  72  18
Direct
  0.1732116800000000  0.0582413800000000  0.3766311300000000
  0.6714623800000000  0.5619554600000000  0.3751398000000000
  0.8323509600000000  0.3963700700000000  0.3767015300000000
  0.9983963000000000  0.2249787200000000  0.3779745000000000
  0.8332646300000000  0.0561621500000000  0.3797218400000000
  0.5024435600000000  0.3872737300000000  0.3781380700000000
  0.0088003900000000  0.8903372200000000  0.3733601400000000
  0.6677295300000000  0.8894777600000000  0.3807688300000000
  0.8336778300000000  0.7172847600000000  0.3711097200000000
  0.3366903200000000  0.5508599199999999  0.3747223000000000
  0.3308788400000000  0.8912259300000001  0.3776261700000000
  0.1689698300000000  0.3923107400000000  0.3778928999999999
  0.0131180800000000  0.5492858900000001  0.3764193500000000
  0.1713926700000000  0.7214247499999999  0.3788970600000001
  0.6761798999999999  0.2253197800000000  0.3777846700000000
  0.5039863900000000  0.0595201700000000  0.3849715700000000
  0.3468298300000000  0.2261070000000000  0.3793400100000000
  0.5045732700000000  0.7224295800000000  0.3763103100000000
  0.9955402799999999  0.3349091700000000  0.3146034100000000
  0.0139792800000000  0.6669367800000000  0.3107252000000000
  0.0005834100000000  0.0109690400000000  0.3129432300000000
  0.1758391900000000  0.1743413700000000  0.3178466000000000
  0.1749406400000000  0.4959561399999999  0.3114134900000000
  0.1769432700000000  0.8334330700000000  0.3135744500000000
  0.3384892900000000  0.3359898900000000  0.3154657500000000
  0.3363899700000000  0.6629841200000000  0.3134358900000000
  0.3465565200000000  0.0084976300000000  0.3200803700000000
  0.5061287500000000  0.1731055900000000  0.3157523500000000
  0.5143042600000000  0.4974231800000000  0.3157714200000000
  0.5131701900000000  0.8357326899999999  0.3191861100000000
  0.6669685900000000  0.3354096100000000  0.3127500600000000
  0.6639668800000000  0.6704239900000000  0.3089458500000000
  0.6585999299999999  0.0006890500000000  0.3225687999999999
  0.8299477900000000  0.1677506700000000  0.3130915200000000
  0.8348638100000000  0.5031083200000001  0.3106507500000000
  0.8287066100000000  0.8336568600000001  0.3113131400000000
  0.9999484400000002  0.6628385100000000  0.4358800300000000
  0.1660661900000000  0.1671625200000000  0.4404874700000000
  0.3375327700000000  0.3427312800000000  0.4400225000000000
  0.3372040600000000  0.6619770400000000  0.4382516100000000
  0.5040710400000000  0.1760157300000000  0.4442549000000000
  0.6755287800000001  0.3341866700000000  0.4411117200000000
  0.6698380100000000  0.6711594100000000  0.4423766300000000
  0.8378198600000000  0.1677287800000000  0.4408076800000000
  0.8411501100000000  0.8315384700000000  0.4369947000000000
  0.9920988900000000  0.3354677200000000  0.4380993300000000
  0.0058717900000000  0.0047668100000000  0.4401502600000000
  0.1703858300000000  0.5028684100000000  0.4410622600000000
  0.1648183300000000  0.8338302300000000  0.4385550699999999
  0.3347981300000000  0.0009298300000000  0.4430804000000000
  0.5049861300000000  0.5010110200000000  0.4418562400000001
  0.5008339100000000  0.8339006000000000  0.4389561800000000
  0.6653822500000000  0.9979784200000000  0.4427315900000000
  0.8353952500000000  0.5038947499999999  0.4354169600000000
  0.9996998400000000  0.2209808400000000  0.5609322600000000
  0.0002307400000000  0.5573096500000000  0.5613921700000000
  0.0009519800000000  0.8889830500000000  0.5566530900000000
  0.1598259200000000  0.0499944100000000  0.5623123000000000
  0.1687307500000000  0.3904011600000000  0.5623658400000000
  0.1643181300000000  0.7213815600000000  0.5601549500000000
  0.3341815400000000  0.2161026100000000  0.5620666700000000
  0.3334323900000000  0.5590600600000000  0.5639605500000000
  0.3369867800000000  0.8899942600000000  0.5613679200000000
  0.4932572900000001  0.0502604800000000  0.5634646400000000
  0.4955583800000000  0.3891153400000000  0.5599998600000000
  0.4888029199999999  0.7241400200000000  0.5628192800000000
  0.6731994300000000  0.2260235700000000  0.5599872500000000
  0.6622103100000000  0.5621702400000000  0.5611142099999999
  0.6619054300000000  0.8906308100000000  0.5577511000000001
  0.8387393100000000  0.0551688800000000  0.5612767500000000
  0.8416555600000001  0.3873297400000000  0.5581199000000000
  0.8236453400000000  0.7193315100000000  0.5612698800000000
  0.9934661600000001  0.5557810500000000  0.6847006600000001
  0.9871844400000001  0.8836711700000000  0.6865407000000000
  0.1558624600000000  0.0535410800000000  0.6904935200000000
  0.1642516400000000  0.3825661800000000  0.6863707700000000
  0.1591300400000000  0.7256411400000000  0.6855278000000000
  0.3299103300000000  0.5532849100000000  0.6884269400000000
  0.3249126000000000  0.8862228599999999  0.6882559800000000
  0.5013976800000000  0.0548971900000000  0.6849584500000000
  0.4949425900000001  0.3924156000000000  0.6844201600000001
  0.6690211100000000  0.5582871500000000  0.6878876800000000
  0.6677808100000000  0.8882203900000000  0.6866287500000000
  0.8300728900000000  0.0528006800000000  0.6860362900000000
  0.8291294900000000  0.3866855400000000  0.6825217800000000
  0.8306069699999999  0.7279684900000000  0.6834261600000001
  0.9995819300000000  0.2196396800000000  0.6873479700000000
  0.3372768500000000  0.2143953000000000  0.6830852700000000
  0.4968638000000001  0.7257491700000001  0.6913797100000000
  0.6611697800000000  0.2271182000000000  0.6825897499999999
  0.4978808100000000  0.5047517500000001  0.6263167600000000
  0.1660922300000000  0.1628567800000000  0.6239726000000000
  0.9998055500000002  0.9974158200000000  0.6249678500000000
  0.8296529600000000  0.8374749800000000  0.6203607300000000
  0.6581152400000000  0.6702086000000000  0.6247918400000000
  0.3345472700000000  0.3287857200000000  0.6241000400000000
  0.8347239800000000  0.1649796000000000  0.6230963000000000
  0.1651459900000000  0.5008649700000000  0.6251808700000000
  0.8302833800000000  0.5011074400000000  0.6222368900000000
  0.9972002900000001  0.3274607000000000  0.6223928000000000
  0.6602180800000000  0.3400994900000000  0.6183550100000000
  0.5022503200000000  0.1650525500000000  0.6213497900000000
  0.1680034500000000  0.8326538100000000  0.6218842600000000
  0.6621543500000000  0.9986189300000000  0.6214050400000000
  0.3287537700000000  0.6679932500000000  0.6278504000000000
  0.9983052900000000  0.6674469900000000  0.6206420499999999
  0.5008515900000000  0.8345364500000000  0.6230955400000000
  0.3222695600000000  0.9966864899999999  0.6272648800000000
