Mo  S  W 
 1.0000000000000000
     9.5549999999999997    0.0000000000000000    0.0000000000000000
     0.0000000000000000   16.5497450000000015    0.0000000000000000
     0.0000000000000000    0.0000000000000000   25.0000000000000000
  Mo   S   W
  18  72  18
Direct
  0.1717861100000000  0.0534170500000000  0.3761926200000000
  0.6673955100000000  0.5539660100000000  0.3668806499999999
  0.8367004900000000  0.3908919000000000  0.3733202900000000
  0.9915187000000000  0.2242905100000000  0.3737421700000000
  0.8360606800000000  0.0566129800000000  0.3741708500000000
  0.5048703300000000  0.3837720900000000  0.3749063400000000
  0.0085385700000000  0.8865587600000000  0.3706723600000000
  0.6758321300000000  0.8814713400000000  0.3736731600000000
  0.8358882900000000  0.7155251500000001  0.3686413000000000
  0.3320575900000000  0.5499025300000000  0.3701611600000000
  0.3401875500000000  0.8861111100000000  0.3733737600000000
  0.1732182900000000  0.3860983900000000  0.3741633200000000
  0.0077832100000000  0.5504561900000000  0.3718216900000000
  0.1730715500000000  0.7189322400000000  0.3728717300000000
  0.6749012500000000  0.2189487700000000  0.3764848400000000
  0.4975878900000000  0.0573974500000000  0.3766806600000001
  0.3379757000000000  0.2247744500000000  0.3741645100000000
  0.5024263000000000  0.7194437000000000  0.3691291500000000
  0.9965633500000001  0.3282448300000000  0.3093826200000000
  0.0152279100000000  0.6595020500000000  0.3066190600000000
  0.0037907200000000  0.0084587100000000  0.3109571100000000
  0.1615301900000000  0.1659723700000000  0.3134764100000000
  0.1748828600000000  0.4946280000000000  0.3061443000000000
  0.1759775700000000  0.8260914600000000  0.3084085300000000
  0.3357819300000000  0.3293268600000000  0.3151872300000000
  0.3409645900000000  0.6595321800000000  0.3089294800000000
  0.3339240300000000  0.9994719399999999  0.3132727000000000
  0.5070241000000000  0.1715907800000000  0.3112085800000000
  0.4953689600000001  0.4870099600000000  0.3089456000000000
  0.5139155900000000  0.8320242400000000  0.3117779300000000
  0.6744067100000000  0.3325765900000000  0.3104817900000000
  0.6663706500000000  0.6682546400000000  0.3029850600000000
  0.6597171500000000  0.9972503700000002  0.3170353900000000
  0.8266274200000000  0.1702220500000000  0.3086515500000000
  0.8372078900000000  0.4978919999999999  0.3107683100000000
  0.8416747199999999  0.8282057500000000  0.3066172200000000
  0.9949509900000001  0.6603072400000000  0.4344069600000000
  0.1705279700000000  0.1673066000000000  0.4363772000000000
  0.3362287800000000  0.3351990700000000  0.4419605900000000
  0.3377265800000000  0.6656493200000000  0.4330070900000000
  0.5069137900000000  0.1675350300000000  0.4379208099999999
  0.6710305500000000  0.3396037800000000  0.4382680500000000
  0.6664929400000000  0.6598125600000000  0.4328724100000000
  0.8433645900000000  0.1664428200000000  0.4379396000000000
  0.8476584300000001  0.8244470300000000  0.4351560900000000
  0.9929766400000000  0.3419767700000000  0.4355547600000000
  0.0019049100000000  0.9996834900000000  0.4375317000000000
  0.1735996300000000  0.4993149500000000  0.4342524100000000
  0.1613059000000000  0.8312103700000000  0.4348006400000000
  0.3288242300000000  0.9940246600000000  0.4372208700000000
  0.5007144400000000  0.4961123100000001  0.4343201500000000
  0.5022318700000000  0.8285818800000000  0.4356257400000000
  0.6747672700000000  0.9942580999999999  0.4369833200000000
  0.8274853300000000  0.4988166200000000  0.4336710100000001
  0.9973478900000000  0.2233152800000000  0.5589508100000000
  0.9986009400000000  0.5526123200000000  0.5667423900000000
  0.0013878300000000  0.8872566000000000  0.5620590400000000
  0.1571419900000000  0.0605088200000000  0.5649064400000000
  0.1505424300000000  0.3932915400000000  0.5601436500000000
  0.1519057800000000  0.7228854000000000  0.5634993600000000
  0.3398470800000000  0.2228214200000000  0.5629545400000000
  0.3386983900000000  0.5489147400000000  0.5656502900000000
  0.3319760200000000  0.8876039900000000  0.5609942100000000
  0.4949129300000000  0.0601053800000000  0.5639816000000000
  0.5051472500000000  0.3982618400000000  0.5637291700000000
  0.4934251100000000  0.7202486400000000  0.5619849300000000
  0.6742308100000000  0.2283625600000000  0.5621504100000000
  0.6780394500000000  0.5583850900000000  0.5696828900000001
  0.6634360100000000  0.9007263599999999  0.5646682200000001
  0.8277450500000000  0.0586851500000000  0.5651247100000000
  0.8300001200000000  0.3941185100000000  0.5639838000000000
  0.8305300799999999  0.7206003100000000  0.5651411900000000
  0.0022933900000000  0.5565265500000000  0.6936464900000000
  0.0045141400000000  0.8902525100000001  0.6915428699999999
  0.1665424200000000  0.0585120200000000  0.6904422000000000
  0.1608162300000000  0.3903039700000000  0.6875689600000000
  0.1539837300000000  0.7197157100000000  0.6861931800000000
  0.3370156100000000  0.5539022900000000  0.6909413300000000
  0.3339098700000000  0.8883994000000000  0.6874194900000000
  0.4875987899999999  0.0598011200000000  0.6875308900000000
  0.4888773100000000  0.3842137500000000  0.6877527200000000
  0.6694787700000000  0.5561507300000000  0.6939087100000001
  0.6730537100000000  0.8931548400000000  0.6888748300000000
  0.8290495800000000  0.0617405800000000  0.6902262300000001
  0.8349996000000000  0.3856566700000000  0.6895444900000000
  0.8299660700000000  0.7247688799999999  0.6902621799999999
  0.0027997600000000  0.2248570600000000  0.6880322199999999
  0.3339497000000000  0.2278780600000000  0.6849283900000001
  0.4841613700000000  0.7264683400000000  0.6866987200000000
  0.6689320100000000  0.2298016300000000  0.6900301700000000
  0.5058102200000000  0.5020222000000000  0.6283281800000000
  0.1683794600000000  0.1750905100000000  0.6244661400000000
  0.9996026600000000  0.0020025100000000  0.6285940000000000
  0.8393622500000000  0.8343446700000000  0.6257618800000000
  0.6599288700000000  0.6689105800000000  0.6288289500000001
  0.3202225800000000  0.3353654600000000  0.6206598800000001
  0.8364344200000000  0.1718295400000000  0.6258304600000000
  0.1685861600000000  0.4998462500000000  0.6276523700000000
  0.8368007300000000  0.5019415600000000  0.6308155700000000
  0.9989920900000000  0.3317339300000000  0.6242686900000000
  0.6658606500000001  0.3382504900000000  0.6265751899999999
  0.5071683400000000  0.1735121500000000  0.6243950100000000
  0.1649174200000000  0.8314655300000000  0.6231337300000001
  0.6548935100000000  0.0109944900000000  0.6288140600000000
  0.3208023200000000  0.6623284400000000  0.6246683900000000
  0.9893696000000000  0.6644085600000000  0.6284227400000000
  0.4987120900000000  0.8367265000000000  0.6234643100000000
  0.3241506800000000  0.0012499500000000  0.6258488100000000
