Mo  S  W 
 1.0000000000000000
     9.5549999999999997    0.0000000000000000    0.0000000000000000
     0.0000000000000000   16.5497450000000015    0.0000000000000000
     0.0000000000000000    0.0000000000000000   25.0000000000000000
  Mo   S   W
  18  72  18
Direct
  0.1744535700000000  0.0492349800000000  0.3773234900000000
  0.6654640500000000  0.5593489699999999  0.3748757300000001
  0.8329451700000000  0.3842576900000000  0.3731844200000001
  0.9959804700000000  0.2190403500000000  0.3746745400000001
  0.8356280699999999  0.0529052000000000  0.3742492400000000
  0.5017912800000000  0.3823355700000000  0.3737109600000000
  0.9987624600000000  0.8858931200000000  0.3765653100000000
  0.6640538100000000  0.8848747900000000  0.3739279000000000
  0.8271530400000000  0.7237848800000000  0.3768913800000000
  0.3299049500000000  0.5531898900000000  0.3735120399999999
  0.3275148800000000  0.8861911900000000  0.3728489600000000
  0.1707259500000000  0.3876504900000000  0.3735125399999999
  0.0006002100000000  0.5507401800000000  0.3749630000000000
  0.1698090900000000  0.7196641400000000  0.3717713700000000
  0.6695093800000000  0.2221558700000000  0.3736200000000000
  0.5013316700000000  0.0538590500000000  0.3729998000000000
  0.3408593200000000  0.2182614200000000  0.3708570500000000
  0.5009969200000000  0.7217438600000000  0.3770848000000000
  0.0076576000000000  0.3315877600000000  0.3146407500000000
  0.9899311100000000  0.6685191900000000  0.3133902000000000
  0.0069715300000000  0.9968973200000000  0.3107221000000000
  0.1735421300000000  0.1587493100000000  0.3111104300000000
  0.1633724100000000  0.4955219800000000  0.3135290300000000
  0.1572200200000000  0.8343485200000000  0.3074202400000000
  0.3350387800000000  0.3353340400000000  0.3085279100000000
  0.3443668800000000  0.6659210900000000  0.3131587300000000
  0.3450062400000000  0.9976373500000001  0.3134734000000000
  0.5060341699999999  0.1666648700000000  0.3147727600000000
  0.5045311300000000  0.5007528900000000  0.3112834400000000
  0.4928918500000001  0.8270615600000000  0.3151703900000000
  0.6653480700000000  0.3243881800000000  0.3104378100000000
  0.6645642800000000  0.6651383500000000  0.3124450500000000
  0.6677556100000001  0.9964379600000000  0.3132464000000000
  0.8363259900000000  0.1583138200000000  0.3099877800000000
  0.8335934200000000  0.4977563100000000  0.3088875100000000
  0.8280913600000001  0.8331664300000000  0.3129543800000000
  0.0010354500000000  0.6643281599999999  0.4371623200000000
  0.1689496800000000  0.1687111400000000  0.4361151900000000
  0.3359869000000000  0.3264092300000000  0.4306779500000000
  0.3280530200000000  0.6609484400000000  0.4377500999999999
  0.5037363700000000  0.1682991200000000  0.4375110900000000
  0.6727064600000000  0.3234199300000000  0.4381460200000000
  0.6620483200000000  0.6656734200000000  0.4422360100000000
  0.8333023500000000  0.1630252300000000  0.4400486000000000
  0.8316831500000000  0.8296429400000001  0.4395734300000000
  0.0072467600000000  0.3261098300000000  0.4354108699999999
  0.9978598400000002  0.0028671400000000  0.4362661600000000
  0.1649983700000000  0.4973678400000001  0.4391019999999999
  0.1582129200000000  0.8285331600000000  0.4372395800000000
  0.3495324700000000  0.9956090000000001  0.4367783800000000
  0.4961167499999999  0.4991524700000000  0.4379574200000000
  0.4880949900000000  0.8277301300000000  0.4394777500000000
  0.6644932200000000  0.9981603100000001  0.4345684300000000
  0.8311870800000000  0.4964799300000000  0.4341439400000000
  0.9909511200000001  0.2237463700000000  0.5654862800000000
  0.9963303800000001  0.5628126400000000  0.5603162900000001
  0.9939345100000001  0.8930270100000000  0.5586799700000000
  0.1776120400000000  0.0564236400000000  0.5600816000000000
  0.1817022900000000  0.3914135400000000  0.5671327400000000
  0.1742462700000000  0.7279504500000000  0.5654231300000000
  0.3344464800000000  0.2239498000000000  0.5660317800000000
  0.3270371000000000  0.5664744400000000  0.5622195800000001
  0.3327067500000000  0.8904034500000000  0.5628831700000000
  0.5003655299999999  0.0527253200000000  0.5636103900000000
  0.4912273500000000  0.3845687000000000  0.5623310300000000
  0.5052736400000000  0.7287934100000000  0.5674726300000000
  0.6553931500000000  0.2241239900000000  0.5610394100000000
  0.6513976900000000  0.5585908100000000  0.5603428100000000
  0.6612702300000000  0.8826916000000000  0.5594497800000000
  0.8359449900000000  0.0538866300000000  0.5595363100000000
  0.8406517099999999  0.3877836900000000  0.5615088200000000
  0.8322544500000000  0.7251609999999999  0.5599715000000000
  0.9942718900000000  0.5612215500000000  0.6824844000000000
  0.9866119599999998  0.8919467500000000  0.6893850600000000
  0.1654030900000000  0.0592947200000000  0.6869085800000001
  0.1719806700000000  0.3918880700000000  0.6894140900000000
  0.1733419600000000  0.7298162400000000  0.6897630200000000
  0.3286393000000000  0.5609034899999999  0.6886229800000000
  0.3240475800000000  0.8913294100000000  0.6940848800000000
  0.5085446300000001  0.0540706400000000  0.6879614800000000
  0.5073273700000001  0.3929864900000000  0.6903814200000000
  0.6641967400000000  0.5582344700000000  0.6838983500000001
  0.6607892500000000  0.8939699700000000  0.6893182200000000
  0.8375928100000000  0.0489892100000000  0.6852376000000000
  0.8426001400000001  0.3962595300000000  0.6876786300000000
  0.8387744100000000  0.7253997000000000  0.6887367100000000
  0.9922408200000000  0.2227829800000000  0.6870963000000000
  0.3350417100000000  0.2185807700000000  0.6887587900000000
  0.5113949800000001  0.7233367100000000  0.6927512100000000
  0.6640048400000000  0.2203224700000000  0.6887856600000000
  0.4932480700000000  0.5025998300000000  0.6247279900000000
  0.1628536100000000  0.1681431300000000  0.6246216600000000
  0.0028615500000000  0.0009947000000000  0.6216929200000000
  0.8235554200000000  0.8339461000000000  0.6254179400000000
  0.6752388100000000  0.6700143900000000  0.6251746600000000
  0.3354902200000000  0.3340623400000000  0.6310761800000000
  0.8202161500000000  0.1654920800000000  0.6246550700000000
  0.1621299400000000  0.5077972300000000  0.6236792799999999
  0.8262571600000000  0.5035385000000000  0.6205539900000000
  0.0071762900000000  0.3384468300000000  0.6266205800000000
  0.6688153700000000  0.3357783400000000  0.6256046900000000
  0.4994091100000000  0.1606623700000000  0.6265033400000000
  0.1609877100000000  0.8394389300000000  0.6266456000000000
  0.6680926100000000  0.9969853400000001  0.6226086800000000
  0.3372419300000000  0.6750280400000001  0.6280977599999999
  0.0077706500000000  0.6749202700000000  0.6223989400000000
  0.5020111500000000  0.8371961300000000  0.6282748200000000
  0.3415113200000000  0.0031025700000000  0.6254551500000000
