Mo  S  W 
 1.0000000000000000
     9.5549999999999997    0.0000000000000000    0.0000000000000000
     0.0000000000000000   16.5497450000000015    0.0000000000000000
     0.0000000000000000    0.0000000000000000   25.0000000000000000
  Mo   S   W
  18  72  18
Direct
  0.1702206000000000  0.0567727700000000  0.3746095500000000
  0.6572341100000000  0.5609457500000000  0.3751081499999999
  0.8313239600000000  0.3940617300000000  0.3783763000000000
  0.9943243800000000  0.2241477700000000  0.3791815200000000
  0.8323901200000000  0.0591012400000000  0.3775223000000000
  0.5019495600000000  0.3857820600000000  0.3736822200000000
  0.0005455500000000  0.8872780000000000  0.3765804600000000
  0.6650674300000000  0.8920565000000000  0.3713177300000000
  0.8301190400000000  0.7201570900000001  0.3721760600000000
  0.3272798700000000  0.5556319400000000  0.3715483900000000
  0.3336753600000000  0.8904568700000000  0.3717902800000000
  0.1714831300000000  0.3924006900000000  0.3769462400000000
  0.0067633600000000  0.5533547100000000  0.3755044300000000
  0.1625910100000000  0.7230860000000000  0.3762534300000000
  0.6719768100000000  0.2265127700000000  0.3763620700000000
  0.4973996000000000  0.0552288100000000  0.3736729400000000
  0.3405609800000000  0.2241302400000000  0.3754184300000000
  0.5012260800000000  0.7235446200000000  0.3682094200000000
  0.0001084700000000  0.3359521300000000  0.3162596700000000
  0.9945075500000000  0.6643781100000000  0.3089971300000000
  0.9986803000000001  0.0061586800000000  0.3126150100000000
  0.1626924800000000  0.1657645900000000  0.3144169900000000
  0.1650835900000000  0.4987528600000000  0.3104203700000000
  0.1579737600000000  0.8344632900000000  0.3123240700000000
  0.3344414700000000  0.3385316300000000  0.3140027000000000
  0.3248451100000000  0.6695611400000000  0.3120962400000000
  0.3266819900000000  0.0025514700000000  0.3120224300000000
  0.4958539600000000  0.1716561400000000  0.3128386600000000
  0.5010842300000000  0.4952014300000000  0.3111547700000000
  0.5012758899999999  0.8379870500000000  0.3064678900000000
  0.6739703900000000  0.3375828000000000  0.3125948600000000
  0.6674516600000000  0.6578484100000001  0.3076364100000000
  0.6692416300000000  0.0041492100000000  0.3133090300000000
  0.8314667600000000  0.1674898700000000  0.3149422800000000
  0.8147696800000001  0.4990368600000001  0.3157241900000000
  0.8414147700000000  0.8392353100000000  0.3127058100000000
  0.0014244000000000  0.6676942100000000  0.4352542099999999
  0.1653651200000000  0.1717671500000000  0.4395830300000000
  0.3383808000000000  0.3357843800000000  0.4365947800000000
  0.3324977600000000  0.6673555900000000  0.4369343300000000
  0.5039474200000000  0.1701808700000000  0.4389080500000000
  0.6721395200000000  0.3373387900000000  0.4398570700000001
  0.6623178500000000  0.6674627400000001  0.4397453100000000
  0.8285837700000001  0.1704611000000000  0.4438887000000000
  0.8288846400000000  0.8299113900000000  0.4388333000000000
  0.9933449100000000  0.3361031900000000  0.4376465800000000
  0.9975613100000001  0.0063582200000000  0.4370278599999999
  0.1676633900000000  0.5046349700000000  0.4381886699999999
  0.1685884300000000  0.8345176300000000  0.4354293100000000
  0.3393317800000000  0.9989250800000001  0.4362225300000000
  0.4917047300000000  0.4986001900000000  0.4361978500000000
  0.5141377200000000  0.8316439600000000  0.4305980500000001
  0.6591499300000000  0.9997416400000000  0.4332112300000000
  0.8337083700000000  0.5043539600000000  0.4352598300000000
  0.0010473700000000  0.2275282700000000  0.5640040800000000
  0.9965594300000001  0.5586681700000000  0.5641393800000000
  0.9985739399999999  0.8861732600000000  0.5626564500000000
  0.1580491100000000  0.0572052100000000  0.5572707600000000
  0.1576792400000000  0.3896863400000000  0.5620077700000000
  0.1598774000000000  0.7209640899999999  0.5654686700000000
  0.3382496200000000  0.2256167300000000  0.5627924700000000
  0.3386480100000000  0.5521100200000000  0.5602634000000000
  0.3347929200000000  0.8888919000000000  0.5648175100000000
  0.5072882700000000  0.0530580300000000  0.5640946800000000
  0.4989507700000000  0.3821165100000000  0.5617355700000000
  0.4999817100000001  0.7190543900000000  0.5624330300000000
  0.6687079900000000  0.2267143800000000  0.5648796500000000
  0.6796829200000000  0.5537920800000000  0.5618219700000000
  0.6717049700000000  0.8836095700000000  0.5641769400000000
  0.8236839300000000  0.0559225300000000  0.5616735300000000
  0.8251543099999999  0.3838616200000000  0.5635052100000000
  0.8361368100000000  0.7213853099999999  0.5680843900000000
  0.0021356700000000  0.5533622000000000  0.6892933700000000
  0.0084701700000000  0.8908528400000000  0.6896765200000000
  0.1592692700000000  0.0576884000000000  0.6830706800000000
  0.1644213400000000  0.3961981100000000  0.6864137700000000
  0.1652486300000000  0.7241866200000000  0.6885726400000000
  0.3360848600000000  0.5541869300000000  0.6831614100000000
  0.3419710900000000  0.8920580700000000  0.6893773000000000
  0.4997435700000000  0.0540561600000000  0.6846400900000000
  0.4994221500000000  0.3893959000000000  0.6897593200000000
  0.6686251300000000  0.5485442000000000  0.6870497200000000
  0.6747182800000000  0.8893175900000000  0.6908403700000000
  0.8353704199999999  0.0574083300000000  0.6878181300000000
  0.8250567500000000  0.3880960100000000  0.6892756500000000
  0.8316124100000000  0.7183500000000000  0.6898183800000000
  0.0080703600000000  0.2297947700000000  0.6869176400000001
  0.3330358900000000  0.2211779200000000  0.6849789600000000
  0.5007593500000000  0.7183596200000000  0.6895989100000000
  0.6725451099999999  0.2170287800000000  0.6891563300000000
  0.5018143600000000  0.4959203099999999  0.6231183800000000
  0.1696011800000000  0.1704753400000000  0.6210945900000000
  0.9950149800000000  0.0033781400000000  0.6221011400000001
  0.8343548000000000  0.8317252500000000  0.6299520700000000
  0.6654151000000000  0.6626736500000000  0.6252363700000000
  0.3328117200000000  0.3358771500000000  0.6259230200000000
  0.8413977400000000  0.1665302500000000  0.6240069100000000
  0.1640343800000000  0.5017684100000001  0.6228348000000000
  0.8374122700000000  0.4972685999999999  0.6259234000000000
  0.9919590100000000  0.3382158200000000  0.6254296700000000
  0.6607568900000000  0.3322278100000000  0.6284188500000000
  0.4963136600000000  0.1687238900000000  0.6253919100000001
  0.1714687500000000  0.8348571100000000  0.6263253100000000
  0.6705857400000000  0.9980382600000000  0.6247282000000000
  0.3340437500000000  0.6646673500000000  0.6238826300000000
  0.0009060700000000  0.6652414300000000  0.6277678799999999
  0.5075388800000000  0.8293719500000000  0.6252263300000001
  0.3297980800000000  0.0021713400000000  0.6215562000000000
