Mo  S  W 
 1.0000000000000000
     9.5549999999999997    0.0000000000000000    0.0000000000000000
     0.0000000000000000   16.5497450000000015    0.0000000000000000
     0.0000000000000000    0.0000000000000000   25.0000000000000000
  Mo   S   W
  18  72  18
Direct
  0.1693021600000000  0.0607203900000000  0.3770199600000000
  0.6731002000000000  0.5507323100000000  0.3779316800000000
  0.8404711200000000  0.3939520400000000  0.3782429500000000
  0.0016479700000000  0.2278197800000000  0.3752543100000000
  0.8351728899999999  0.0589147000000000  0.3796434800000000
  0.5063140800000000  0.3903193200000000  0.3751364200000000
  0.0059786700000000  0.8899158800000000  0.3800204900000000
  0.6781101100000000  0.8879051700000000  0.3776340500000000
  0.8445034299999999  0.7198285200000000  0.3770688900000000
  0.3399173800000000  0.5532674600000000  0.3783698099999999
  0.3396544000000000  0.8901954300000000  0.3802519700000000
  0.1730616100000000  0.3836242800000000  0.3773862600000000
  0.0007926600000000  0.5552262900000000  0.3758068100000000
  0.1778017600000000  0.7192264600000000  0.3772049600000000
  0.6681709100000000  0.2269700100000000  0.3807574600000000
  0.5058204300000000  0.0579533800000000  0.3806144299999999
  0.3329376300000000  0.2282739700000000  0.3771291200000000
  0.5033158200000000  0.7213090700000000  0.3763087400000000
  0.0022395500000000  0.3384457000000000  0.3142524800000000
  0.0100402400000000  0.6645305900000000  0.3137389200000000
  0.0006910600000000  0.9979586000000000  0.3174394000000000
  0.1659658200000000  0.1747040800000000  0.3096345900000000
  0.1714418100000000  0.4981593600000000  0.3151695500000000
  0.1777538300000000  0.8342036600000000  0.3174108700000000
  0.3377347300000000  0.3332742900000000  0.3167729000000000
  0.3406579100000000  0.6639508500000000  0.3150971400000000
  0.3383113200000000  0.0011210500000000  0.3173699500000000
  0.5034461600000000  0.1659813800000000  0.3216672600000001
  0.4975308000000000  0.5070771800000000  0.3112661100000000
  0.4967859500000000  0.8377980200000000  0.3165905900000000
  0.6732909000000000  0.3322902400000000  0.3147962500000000
  0.6691811600000001  0.6679210400000000  0.3160748700000000
  0.6701136900000000  0.0059668800000000  0.3170533100000000
  0.8363035900000000  0.1692455300000000  0.3158377000000000
  0.8352513800000000  0.5094269500000000  0.3131737400000000
  0.8374352300000001  0.8323130900000000  0.3166685100000000
  0.0100624900000000  0.6647503900000000  0.4396871400000000
  0.1636529200000000  0.1744551900000000  0.4402415800000000
  0.3383901400000000  0.3326697200000000  0.4399006699999999
  0.3434834500000000  0.6642018700000000  0.4394923000000000
  0.5041051800000000  0.1703792100000000  0.4405797400000000
  0.6695581200000000  0.3437681800000000  0.4377836300000000
  0.6726920100000000  0.6697585100000000  0.4364439300000000
  0.8377701800000001  0.1725646700000000  0.4399253400000000
  0.8452232100000000  0.8293631500000000  0.4378326100000000
  0.0035282000000000  0.3393495800000000  0.4378234900000000
  0.0068411300000000  0.9987184300000000  0.4391812299999999
  0.1687589700000000  0.4930584100000001  0.4360342000000000
  0.1772323400000000  0.8317610600000001  0.4410668899999999
  0.3263404500000000  0.0073598400000000  0.4384730600000000
  0.5086759199999999  0.5005073300000000  0.4411676200000000
  0.5021716400000000  0.8309546700000000  0.4416817299999999
  0.6789561900000000  0.0039958500000000  0.4425571600000000
  0.8409978100000000  0.5084858900000000  0.4432171100000000
  0.0078387600000000  0.2187818300000000  0.5644438700000000
  0.0063292800000000  0.5574774700000000  0.5578146899999999
  0.9963894200000000  0.8909391800000001  0.5612526000000000
  0.1533211500000000  0.0522474100000000  0.5621474900000000
  0.1597984900000000  0.3815822300000000  0.5651241100000000
  0.1667481300000000  0.7251357600000000  0.5629593500000000
  0.3344872900000000  0.2204994900000000  0.5616462300000000
  0.3196437200000000  0.5614197000000000  0.5615117100000000
  0.3323321400000000  0.8865934600000001  0.5584326800000000
  0.4886543200000000  0.0513727700000000  0.5599978000000000
  0.4873246500000001  0.3945853600000000  0.5581385500000000
  0.4950504900000001  0.7204390600000000  0.5624500200000000
  0.6718980600000000  0.2159050700000000  0.5603949000000000
  0.6612228700000000  0.5560982799999999  0.5610423500000000
  0.6656697000000000  0.8827132900000000  0.5615981300000000
  0.8227979000000000  0.0541319000000000  0.5622785400000000
  0.8250684500000000  0.3898769700000000  0.5625049400000000
  0.8243791800000000  0.7263011500000000  0.5609597000000000
  0.0008678700000000  0.5596694900000000  0.6841792799999999
  0.0035563000000000  0.8925542000000000  0.6888074600000000
  0.1575448800000000  0.0504693700000000  0.6876654200000000
  0.1673295100000000  0.3898283000000000  0.6848660800000000
  0.1559573500000000  0.7236178000000000  0.6863293300000000
  0.3304185200000000  0.5577317500000000  0.6857496100000000
  0.3353242800000000  0.8886103700000000  0.6859699800000000
  0.4926047000000000  0.0518502300000000  0.6822945000000000
  0.4974558800000000  0.3880007300000000  0.6855884400000000
  0.6640964800000000  0.5547282600000000  0.6811105500000000
  0.6669817500000000  0.8874316300000000  0.6869761400000001
  0.8168109900000000  0.0528337400000000  0.6861600200000000
  0.8274262999999999  0.3949523100000000  0.6861155700000000
  0.8236861300000000  0.7222379600000000  0.6863112200000000
  0.0097174800000000  0.2182267300000000  0.6862705600000000
  0.3433811500000000  0.2197327700000000  0.6855269100000000
  0.4932940800000000  0.7237582600000000  0.6870962800000000
  0.6707927000000000  0.2193368800000000  0.6837048400000001
  0.4943635299999999  0.5010988199999999  0.6205660400000000
  0.1728321600000000  0.1603948100000000  0.6254723900000000
  0.9787171400000000  0.9992615600000001  0.6232640200000000
  0.8335870100000000  0.8341248800000000  0.6229907099999999
  0.6588157100000001  0.6689226000000000  0.6232526500000000
  0.3333741800000000  0.3308862700000000  0.6237310000000000
  0.8449135899999999  0.1649659500000000  0.6250608100000000
  0.1630472500000000  0.5014213900000000  0.6227344000000000
  0.8415044000000000  0.5025633500000000  0.6202863199999999
  0.9913925200000001  0.3355190300000000  0.6267142500000000
  0.6596232100000000  0.3354759400000000  0.6215757600000000
  0.5016127800000000  0.1608980600000000  0.6197591700000000
  0.1665943600000000  0.8345604000000000  0.6232788600000000
  0.6613980600000000  0.9940186400000001  0.6202852100000000
  0.3240975600000000  0.6729909700000000  0.6255125100000000
  0.9919325700000000  0.6713008600000000  0.6223192400000001
  0.5025799500000000  0.8335785600000000  0.6242888100000000
  0.3227092400000000  0.0004345700000000  0.6219882400000000
