Mo  S  W 
 1.0000000000000000
     9.5549999999999997    0.0000000000000000    0.0000000000000000
     0.0000000000000000   16.5497450000000015    0.0000000000000000
     0.0000000000000000    0.0000000000000000   25.0000000000000000
  Mo   S   W
  18  72  18
Direct
  0.1735584300000000  0.0578343400000000  0.3770325000000000
  0.6713934400000000  0.5617142500000000  0.3749209700000000
  0.8322511800000000  0.3951921500000000  0.3767889400000000
  0.9984415699999999  0.2248057200000000  0.3780671900000000
  0.8334874600000000  0.0560812000000000  0.3796887200000000
  0.5027883399999999  0.3868366100000000  0.3783539500000000
  0.0080818900000000  0.8906269500000000  0.3733217100000000
  0.6679337000000000  0.8890934100000000  0.3805699200000000
  0.8334081200000000  0.7177162499999999  0.3710842100000000
  0.3368421000000000  0.5511894500000000  0.3746268000000000
  0.3309389700000000  0.8911513100000000  0.3774363700000000
  0.1688585300000000  0.3925701800000000  0.3779546700000000
  0.0134356100000000  0.5494566900000000  0.3764091700000000
  0.1707273800000000  0.7216080600000000  0.3787397300000000
  0.6760572200000000  0.2254762000000000  0.3777942000000000
  0.5038794100000000  0.0594484300000000  0.3849148500000000
  0.3473148900000000  0.2261064100000000  0.3793494400000000
  0.5049448600000001  0.7224479800000000  0.3762712500000000
  0.9955007299999998  0.3343986600000000  0.3148663800000000
  0.0129863800000000  0.6670406700000000  0.3106361900000000
  0.0008697700000000  0.0107761500000000  0.3132249600000000
  0.1760600800000000  0.1750583200000000  0.3175979800000000
  0.1748462300000000  0.4965808400000000  0.3110694800000000
  0.1770323100000000  0.8338692000000000  0.3133686400000000
  0.3383294500000000  0.3355124200000000  0.3166328100000000
  0.3356881000000000  0.6636237800000000  0.3132362800000000
  0.3465884800000000  0.0081003300000000  0.3200126400000000
  0.5073462700000000  0.1723280400000000  0.3160879200000000
  0.5123489400000000  0.4985222999999999  0.3156694200000000
  0.5130041400000001  0.8348413900000000  0.3196570600000000
  0.6658018800000000  0.3343486200000000  0.3126088700000000
  0.6629413100000000  0.6716795400000000  0.3089227100000000
  0.6581391300000000  0.0009081600000000  0.3224984100000000
  0.8310594200000000  0.1679222600000000  0.3126711800000000
  0.8352298700000000  0.5036154100000000  0.3107080500000000
  0.8259681200000000  0.8331368400000000  0.3112316300000000
  0.9992604999999999  0.6631271900000000  0.4361034700000000
  0.1659824300000000  0.1667213200000000  0.4410236400000000
  0.3365382500000000  0.3425713400000000  0.4397769499999999
  0.3378636000000000  0.6620974800000000  0.4376162800000000
  0.5034706600000000  0.1761892500000000  0.4436941300000000
  0.6754366400000000  0.3343975300000000  0.4408608200000000
  0.6706106900000000  0.6720295700000000  0.4419771400000000
  0.8367185600000000  0.1671811500000000  0.4404580500000000
  0.8413815900000000  0.8325930900000000  0.4363343200000000
  0.9927383199999998  0.3356292600000000  0.4378294400000000
  0.0062235100000000  0.0036822000000000  0.4403792500000000
  0.1704838300000000  0.5030297100000000  0.4407300100000000
  0.1667150800000000  0.8339046800000000  0.4382644100000000
  0.3340364400000000  0.0014987900000000  0.4426779200000000
  0.5054804200000000  0.5013547000000000  0.4422642900000000
  0.4996588700000000  0.8338222100000000  0.4393644400000000
  0.6648033400000000  0.9988295899999999  0.4425529400000000
  0.8354587600000000  0.5044982600000000  0.4352555800000000
  0.9983616299999999  0.2207908900000000  0.5607440600000000
  0.9999400600000000  0.5570489400000000  0.5613970900000000
  0.0006423600000000  0.8890970600000000  0.5566226500000000
  0.1611949000000000  0.0499242600000000  0.5626670499999999
  0.1693900900000000  0.3903617700000000  0.5626737300000000
  0.1651900700000000  0.7213390800000000  0.5605159600000000
  0.3342174500000000  0.2163564100000000  0.5623454300000000
  0.3324578400000000  0.5592035800000000  0.5641217500000000
  0.3370874800000000  0.8894389600000000  0.5608206100000001
  0.4928367300000000  0.0506119800000000  0.5640701600000000
  0.4959251800000000  0.3896375200000000  0.5598071500000000
  0.4897935500000001  0.7236972800000000  0.5630218299999999
  0.6719316500000000  0.2255561800000000  0.5596068700000000
  0.6606758600000000  0.5622812700000001  0.5614067100000000
  0.6616057400000001  0.8910046800000000  0.5584234400000000
  0.8400917700000000  0.0549341700000000  0.5619755900000000
  0.8413576600000000  0.3874510400000000  0.5585251600000000
  0.8234933100000000  0.7190187300000001  0.5615149200000000
  0.9934629099999999  0.5555499900000000  0.6846528500000000
  0.9863995600000000  0.8842406300000000  0.6869023399999999
  0.1570854300000000  0.0541556600000000  0.6908876899999999
  0.1647768100000000  0.3820991300000000  0.6861881000000000
  0.1602691400000000  0.7251221799999999  0.6852610900000000
  0.3306327300000000  0.5528040800000000  0.6886126999999999
  0.3238675800000000  0.8860440200000000  0.6883391400000000
  0.5013494900000000  0.0555737600000000  0.6850768300000000
  0.4948558300000000  0.3920959500000000  0.6845357500000000
  0.6686024100000000  0.5587762200000000  0.6879541899999999
  0.6669185600000000  0.8881015900000000  0.6866167300000001
  0.8310298699999999  0.0525842900000000  0.6857727700000001
  0.8311412800000000  0.3865921200000000  0.6826312200000000
  0.8302763200000000  0.7280287300000000  0.6834396200000000
  0.9992958799999999  0.2188478000000000  0.6867429000000000
  0.3365324700000000  0.2150762900000000  0.6829587300000000
  0.4962631100000000  0.7257189900000000  0.6912228300000000
  0.6610363000000000  0.2271635000000000  0.6829396900000000
  0.4982761100000000  0.5048081200000000  0.6265850900000000
  0.1654817900000000  0.1631792600000000  0.6239754700000000
  0.0007293600000000  0.9973630500000000  0.6248696700000000
  0.8294598300000000  0.8373551400000000  0.6201451000000000
  0.6585046600000000  0.6701673900000000  0.6247452800000000
  0.3340010100000000  0.3287485600000000  0.6240956900000000
  0.8339350800000001  0.1651454700000000  0.6229484100000000
  0.1653002700000000  0.5008596600000000  0.6252664700000000
  0.8295571200000000  0.5009567900000000  0.6223750200000000
  0.9977984200000001  0.3273342100000000  0.6221426600000000
  0.6606864500000000  0.3401303100000000  0.6182980200000000
  0.5022983000000000  0.1652198800000000  0.6214531599999999
  0.1678388800000000  0.8324568900000000  0.6218843400000000
  0.6623612900000000  0.9990339499999999  0.6214536700000000
  0.3289317700000000  0.6677407700000000  0.6277823200000000
  0.9986074300000001  0.6672213299999999  0.6206764600000000
  0.5006051800000000  0.8346344500000000  0.6230964400000000
  0.3228917100000000  0.9967152999999999  0.6273860300000000
