Mo  S  W 
 1.0000000000000000
     9.5549999999999997    0.0000000000000000    0.0000000000000000
     0.0000000000000000   16.5497450000000015    0.0000000000000000
     0.0000000000000000    0.0000000000000000   25.0000000000000000
  Mo   S   W
  18  72  18
Direct
  0.1681787500000000  0.0617426600000000  0.3756139400000000
  0.6721142300000000  0.5589626900000000  0.3781242800000000
  0.8339263800000000  0.3991765600000000  0.3755118300000000
  0.9993587500000001  0.2260879300000000  0.3760291900000000
  0.8323513500000000  0.0582800100000000  0.3796149500000000
  0.5057309000000000  0.3914770000000000  0.3764236000000000
  0.0083933000000000  0.8896369100000000  0.3756787500000000
  0.6734283300000000  0.8902857199999999  0.3805872100000000
  0.8391677699999999  0.7169560400000000  0.3741297800000000
  0.3379383200000000  0.5498382000000001  0.3772831699999999
  0.3366701200000000  0.8909697700000000  0.3797737500000000
  0.1703628700000000  0.3864778200000000  0.3773402800000000
  0.0043275200000000  0.5525761200000000  0.3741565400000000
  0.1777836400000000  0.7196604700000000  0.3777553100000000
  0.6711661799999999  0.2246794500000000  0.3790795500000000
  0.5044226100000000  0.0610166300000000  0.3835665300000000
  0.3352467300000000  0.2284672700000000  0.3794112399999999
  0.5021883500000000  0.7206300300000000  0.3769044900000000
  0.0005971900000000  0.3407865800000000  0.3146458000000000
  0.0174966600000000  0.6620269800000000  0.3157547800000000
  0.9999299899999999  0.0039610600000000  0.3141784900000000
  0.1710272200000000  0.1700759000000000  0.3151664000000000
  0.1735321100000000  0.4936204100000000  0.3150939800000000
  0.1754828400000000  0.8305153199999999  0.3159331100000000
  0.3365790500000000  0.3372207700000000  0.3102411500000000
  0.3420981000000000  0.6616413799999999  0.3170464000000000
  0.3437508700000000  0.0057876200000000  0.3170035300000000
  0.5008052700000000  0.1722810900000000  0.3181107400000000
  0.5154046300000000  0.4958922300000000  0.3131962900000000
  0.4978324600000000  0.8428513800000000  0.3126922000000000
  0.6782776700000001  0.3413623200000000  0.3170991700000000
  0.6705002100000000  0.6611339800000000  0.3128426600000000
  0.6669813200000000  0.0032988600000000  0.3181667900000000
  0.8314217699999999  0.1656269700000000  0.3185931800000000
  0.8355654500000000  0.5049440400000000  0.3126762600000000
  0.8523146300000000  0.8382658800000000  0.3166516200000000
  0.0057427000000000  0.6620812700000001  0.4358145000000000
  0.1715297800000000  0.1749253500000000  0.4361107800000000
  0.3392746300000000  0.3355965300000000  0.4415685500000000
  0.3364912300000000  0.6631016400000000  0.4418252600000001
  0.5141284400000000  0.1713038300000000  0.4445363900000000
  0.6716384100000000  0.3386340100000000  0.4390137600000000
  0.6659691400000000  0.6648340000000000  0.4376288900000000
  0.8433778700000000  0.1724268400000000  0.4422429300000000
  0.8440419300000001  0.8222095800000000  0.4382121400000000
  0.9964888500000001  0.3387678500000000  0.4395499600000000
  0.0053849100000000  0.0054023200000000  0.4354276500000001
  0.1728486700000000  0.4963578400000000  0.4403350600000000
  0.1573483200000000  0.8334365900000000  0.4415404000000000
  0.3328586400000000  0.9994963299999999  0.4431509300000000
  0.5049200300000000  0.5002301900000000  0.4350949099999999
  0.5010054100000000  0.8320317800000000  0.4393636300000000
  0.6779699300000001  0.9976260600000000  0.4465729700000000
  0.8367974200000000  0.5056980500000000  0.4428459499999999
  0.0123671900000000  0.2172530900000000  0.5627857500000000
  0.0044529000000000  0.5554273800000000  0.5590397100000000
  0.0019283600000000  0.8891077900000000  0.5622136300000000
  0.1543128700000000  0.0528332200000000  0.5608749100000000
  0.1615142000000000  0.3848718800000000  0.5627779300000000
  0.1653604900000000  0.7223734900000000  0.5598421000000000
  0.3319067400000000  0.2178937400000000  0.5583873100000000
  0.3320722100000000  0.5580205800000000  0.5625531600000000
  0.3312907900000000  0.8912844200000000  0.5634202100000000
  0.4903118900000000  0.0502813600000000  0.5574855200000000
  0.4829868500000001  0.3931940700000000  0.5598294000000000
  0.4871508700000000  0.7236516700000000  0.5621571100000000
  0.6767324300000001  0.2218423000000000  0.5617384600000001
  0.6698170900000000  0.5563084600000000  0.5612529000000001
  0.6650955400000000  0.8847654700000001  0.5566406800000000
  0.8213003700000000  0.0547124100000000  0.5586363900000000
  0.8328454100000000  0.3903078200000000  0.5585288400000000
  0.8262247400000000  0.7269818900000000  0.5594136400000000
  0.9970392500000000  0.5591640700000000  0.6854542100000000
  0.0084153200000000  0.8852133200000000  0.6833181900000000
  0.1528850600000000  0.0490669700000000  0.6863025600000000
  0.1616474300000000  0.3888424100000000  0.6851971000000000
  0.1504408800000000  0.7254608900000000  0.6875902100000001
  0.3247863200000000  0.5595110200000000  0.6879787300000000
  0.3396759900000000  0.8866095500000000  0.6863136300000001
  0.4960697600000001  0.0491350200000000  0.6838138800000000
  0.4990208900000000  0.3897066700000000  0.6857850700000000
  0.6690560200000000  0.5542856500000000  0.6839755300000000
  0.6710010300000000  0.8904878700000000  0.6843373600000000
  0.8184605000000000  0.0549104400000000  0.6864359200000000
  0.8172956200000000  0.3908314900000000  0.6832572300000002
  0.8311944400000000  0.7231644400000000  0.6839088900000000
  0.0026917400000000  0.2226585000000000  0.6890948800000000
  0.3433336300000000  0.2143964300000000  0.6876716200000000
  0.4989728300000000  0.7246802700000000  0.6875602800000000
  0.6693083399999999  0.2240855200000000  0.6807809399999999
  0.4953533500000000  0.5031461000000000  0.6223352000000000
  0.1705741800000000  0.1598977600000000  0.6242825100000000
  0.9868315400000000  0.9978009299999999  0.6248677400000000
  0.8313789600000000  0.8368385500000000  0.6218869299999999
  0.6556904400000000  0.6701578700000000  0.6249226500000000
  0.3368661300000000  0.3299011600000000  0.6237024300000000
  0.8426848499999999  0.1644961400000000  0.6248265300000000
  0.1634982100000000  0.5009168200000000  0.6238696900000000
  0.8381124500000001  0.5023108900000000  0.6206236600000000
  0.9928859000000000  0.3315685000000000  0.6253890300000000
  0.6588703200000000  0.3381220300000000  0.6202192100000000
  0.5022987000000000  0.1625489800000000  0.6201057900000000
  0.1668802700000000  0.8347372700000000  0.6222666300000000
  0.6626399700000000  0.9945449199999999  0.6210880000000000
  0.3264073600000000  0.6713172300000000  0.6274024400000000
  0.9941901100000001  0.6703839800000000  0.6215906200000000
  0.5024934200000000  0.8338871300000000  0.6241164100000000
  0.3193110200000000  0.9982974200000000  0.6249213000000000
