Mo  S  W 
 1.0000000000000000
     9.5549999999999997    0.0000000000000000    0.0000000000000000
     0.0000000000000000   16.5497450000000015    0.0000000000000000
     0.0000000000000000    0.0000000000000000   25.0000000000000000
  Mo   S   W
  18  72  18
Direct
  0.1737629300000000  0.0565544200000000  0.3741834199999999
  0.6721357900000000  0.5520701800000000  0.3732377299999999
  0.8407164200000000  0.3906302200000000  0.3746238600000000
  0.0178902200000000  0.2220020400000000  0.3713563000000000
  0.8328828600000000  0.0556349600000000  0.3719822500000000
  0.5118808600000000  0.3862644800000000  0.3790092700000000
  0.0059264900000000  0.8901106700000000  0.3729141699999999
  0.6707191800000000  0.8886577000000000  0.3756367299999999
  0.8351811200000000  0.7156490599999999  0.3749157100000000
  0.3404694000000000  0.5542587300000000  0.3760589400000000
  0.3392861900000000  0.8874030899999999  0.3758416700000000
  0.1798222400000000  0.3911434400000000  0.3739826900000000
  0.0001028400000000  0.5521641100000000  0.3760793700000000
  0.1707963100000000  0.7228913200000000  0.3765427500000000
  0.6756021500000000  0.2221073600000000  0.3778934900000000
  0.5150104599999999  0.0533980500000000  0.3761076199999999
  0.3373129100000000  0.2204945100000000  0.3726925999999999
  0.5025499500000000  0.7189683500000000  0.3776648400000000
  0.0150976900000000  0.3381165600000000  0.3079188400000000
  0.0047393100000000  0.6628159900000000  0.3124584800000000
  0.0025160300000000  0.9982707800000000  0.3080967300000000
  0.1724768400000000  0.1644985100000000  0.3104462500000000
  0.1730009700000000  0.4997589599999999  0.3116056900000000
  0.1813358600000000  0.8356906400000000  0.3118345100000000
  0.3519036200000000  0.3340027100000000  0.3116682400000000
  0.3428595600000000  0.6616767700000000  0.3155644300000000
  0.3422680000000000  0.0021226300000000  0.3126714900000000
  0.5032405500000000  0.1666986900000000  0.3107962400000000
  0.5062274400000000  0.4956778100000000  0.3126509900000000
  0.5026652000000000  0.8299167000000000  0.3125907000000000
  0.6717350500000000  0.3355202500000000  0.3117586600000000
  0.6670593500000001  0.6657384800000000  0.3126902600000000
  0.6709734200000000  0.9986310300000000  0.3084560500000000
  0.8349423600000000  0.1690249400000000  0.3133143700000000
  0.8378905100000000  0.5052503000000000  0.3110635500000000
  0.8457871399999999  0.8323796900000000  0.3126236100000000
  0.0060871600000000  0.6678212000000000  0.4369059000000000
  0.1726012900000000  0.1727522400000000  0.4357651800000000
  0.3385258600000000  0.3293147800000000  0.4386115800000001
  0.3312338600000000  0.6679179600000000  0.4405632900000000
  0.5041449400000000  0.1650828500000000  0.4377001100000000
  0.6808431100000000  0.3246701300000000  0.4439542800000000
  0.6680047500000000  0.6672065200000000  0.4398491300000000
  0.8456808299999999  0.1660667000000000  0.4354600900000001
  0.8354346100000000  0.8299212400000000  0.4392513599999999
  0.0124709300000000  0.3361873400000000  0.4340143900000000
  0.9958011900000000  0.9973964800000000  0.4340357400000000
  0.1648833900000000  0.4991534799999999  0.4388521600000000
  0.1696565500000000  0.8369043500000000  0.4359457300000000
  0.3433230400000000  0.9999266099999999  0.4369877100000000
  0.5072371300000000  0.5058212300000000  0.4378583400000000
  0.5092435800000000  0.8331210500000000  0.4352344100000000
  0.6775852300000000  0.0050116500000000  0.4374418999999999
  0.8318300300000000  0.5025597600000000  0.4388295200000000
  0.0051174300000000  0.2171640300000000  0.5633516300000000
  0.0074823400000000  0.5587091400000000  0.5587829900000000
  0.9974754899999999  0.8943780900000000  0.5587556500000000
  0.1610600400000000  0.0594503400000000  0.5643334100000000
  0.1618681200000000  0.3869469600000000  0.5611653700000000
  0.1715879900000000  0.7228453500000001  0.5613427900000000
  0.3351558800000000  0.2199710400000000  0.5652465200000000
  0.3351999200000000  0.5594765500000000  0.5663394300000000
  0.3357795200000000  0.8878779300000000  0.5642876900000000
  0.4836813600000000  0.0559055900000000  0.5609997500000000
  0.4846704300000000  0.3892729400000000  0.5645978400000000
  0.4939993500000000  0.7256256700000000  0.5664117100000000
  0.6684461300000000  0.2226412400000000  0.5614978600000000
  0.6546363500000000  0.5600059800000000  0.5615082500000000
  0.6633698600000000  0.8897521600000000  0.5612388800000000
  0.8231495900000000  0.0521572100000000  0.5618669600000000
  0.8321014300000000  0.3898564100000000  0.5624120200000000
  0.8234341100000000  0.7253207500000000  0.5593105300000000
  0.9926012299999999  0.5568688899999999  0.6837653500000000
  0.0008277600000000  0.8908939000000000  0.6860647299999999
  0.1560738800000000  0.0529684900000000  0.6875290100000000
  0.1538993300000000  0.3884639400000000  0.6899003800000000
  0.1545592300000000  0.7287932400000000  0.6880810200000000
  0.3219345400000000  0.5594853300000000  0.6882941700000000
  0.3374376900000000  0.8842935900000000  0.6869866300000002
  0.4841955900000000  0.0539257300000000  0.6904534400000000
  0.4842438500000000  0.3892767400000000  0.6859444299999999
  0.6635051100000000  0.5600314700000000  0.6861686700000000
  0.6778665200000000  0.8896325200000000  0.6875530200000000
  0.8218455300000000  0.0558550100000000  0.6886487000000000
  0.8261649300000000  0.3946772500000000  0.6865862700000001
  0.8338500500000000  0.7222391900000000  0.6866165000000000
  0.9918248200000002  0.2196562500000000  0.6898006500000000
  0.3370111800000000  0.2202842900000000  0.6879572199999999
  0.4968644900000000  0.7223688600000000  0.6912519100000000
  0.6654859200000000  0.2212863500000000  0.6866828200000000
  0.4956586200000000  0.5027299600000000  0.6270770700000000
  0.1667209000000000  0.1668324100000000  0.6297882700000000
  0.9877799600000000  0.9993275199999999  0.6243477400000000
  0.8428430000000001  0.8316742200000000  0.6211628300000001
  0.6654765300000000  0.6728471900000000  0.6255431000000000
  0.3157275300000000  0.3302129500000000  0.6254446100000000
  0.8291350000000000  0.1672161700000000  0.6242969000000000
  0.1642020200000000  0.5032614600000000  0.6250071600000000
  0.8314364500000000  0.5055449400000001  0.6202283300000000
  0.9946061300000000  0.3320404500000000  0.6243833600000001
  0.6588538000000000  0.3350250200000000  0.6233744700000000
  0.5063811900000000  0.1625918600000000  0.6247541599999999
  0.1672940900000000  0.8389608300000000  0.6248339000000001
  0.6529732000000000  0.0023543400000000  0.6249381400000000
  0.3220918900000000  0.6698440600000000  0.6281557600000000
  0.9959823100000000  0.6702258100000000  0.6208062100000000
  0.5040106900000000  0.8364338200000000  0.6284993600000000
  0.3247223000000000  0.9976402199999999  0.6260340599999999
