Mo  S  W 
 1.0000000000000000
     9.5549999999999997    0.0000000000000000    0.0000000000000000
     0.0000000000000000   16.5497450000000015    0.0000000000000000
     0.0000000000000000    0.0000000000000000   25.0000000000000000
  Mo   S   W
  18  72  18
Direct
  0.1794265800000000  0.0472146200000000  0.3761538200000000
  0.6733298000000000  0.5528983400000000  0.3763000000000000
  0.8403454200000000  0.3822062100000000  0.3762486100000000
  0.0062421800000000  0.2148592500000000  0.3757477300000000
  0.8398327900000000  0.0543126200000000  0.3757956900000000
  0.5043668100000001  0.3846057100000000  0.3759094000000001
  0.0004730100000000  0.8892689499999999  0.3743860900000000
  0.6733899400000000  0.8885836400000000  0.3726204900000000
  0.8379802500000000  0.7250491100000001  0.3738990600000001
  0.3395920000000000  0.5614326700000000  0.3710168300000000
  0.3477837500000000  0.8857509400000000  0.3721252800000000
  0.1730970900000000  0.3888924100000000  0.3727499100000000
  0.0119643300000000  0.5579751500000000  0.3721409899999999
  0.1679171300000000  0.7279805800000000  0.3755276000000000
  0.6758082300000000  0.2143110100000000  0.3743474100000000
  0.4952010200000000  0.0524883700000000  0.3718750500000000
  0.3381093000000000  0.2230080600000000  0.3745063800000000
  0.5085638700000000  0.7256092800000000  0.3717414300000000
  0.9992043200000000  0.3299130800000000  0.3140462400000000
  0.0036523500000000  0.6714941600000000  0.3090374100000000
  0.0084838000000000  0.9992256699999998  0.3112985700000000
  0.1779471800000000  0.1624715600000000  0.3118440600000000
  0.1770223100000000  0.5058579300000000  0.3096306200000000
  0.1583629800000000  0.8331557600000000  0.3097880000000000
  0.3399518800000000  0.3304899500000000  0.3108881800000000
  0.3291072200000000  0.6803093600000000  0.3095591500000000
  0.3275274600000000  0.9923796500000001  0.3093385600000000
  0.5072335300000000  0.1630909100000000  0.3122209700000000
  0.5080244900000001  0.4973714000000000  0.3147938300000000
  0.5155226900000000  0.8352352800000000  0.3098233300000000
  0.6663504099999999  0.3330660500000000  0.3112144000000000
  0.6730914600000000  0.6616053000000000  0.3104360400000000
  0.6761494600000000  0.0003667500000000  0.3129541900000000
  0.8501413600000000  0.1652765500000000  0.3087141300000000
  0.8317710000000000  0.4956943100000000  0.3130587400000000
  0.8321257399999999  0.8336119500000000  0.3072586000000000
  0.0056138800000000  0.6658043400000000  0.4371854100000000
  0.1684747800000000  0.1553342700000000  0.4415287000000000
  0.3253445100000000  0.3324871100000000  0.4366346400000001
  0.3413891300000000  0.6708244100000000  0.4335716800000000
  0.5069948800000000  0.1629090600000000  0.4358463400000000
  0.6780955100000000  0.3336277500000000  0.4378308300000000
  0.6764534800000001  0.6674878300000000  0.4375010300000000
  0.8376449800000000  0.1640589100000000  0.4384341000000000
  0.8452256400000000  0.8364367500000000  0.4365386200000000
  0.0095204900000000  0.3282516200000000  0.4372423900000000
  0.0069584100000000  0.9991924700000000  0.4368646400000000
  0.1840204300000000  0.5039862500000000  0.4337317200000000
  0.1742626000000000  0.8348362400000000  0.4342725900000000
  0.3344305500000000  0.9920201600000000  0.4347286600000000
  0.4997328899999999  0.4979479299999999  0.4410241700000000
  0.5085321100000000  0.8350726800000000  0.4378687100000000
  0.6670582200000000  0.9992912899999999  0.4334661500000000
  0.8454688700000000  0.4996810800000000  0.4327652000000001
  0.0009207100000000  0.2246978500000000  0.5646490700000000
  0.9905004799999999  0.5572458200000000  0.5620648300000000
  0.0023475000000000  0.8880399900000000  0.5607727900000000
  0.1607909700000000  0.0559190600000000  0.5604756900000000
  0.1630420200000000  0.3941638000000000  0.5645844400000000
  0.1681130600000000  0.7332633700000000  0.5658745500000000
  0.3187944300000000  0.2183791800000000  0.5658066100000000
  0.3280450900000000  0.5623724800000000  0.5624697600000000
  0.3342540400000000  0.8877885599999999  0.5630406200000000
  0.5012445500000000  0.0511810100000000  0.5621003000000000
  0.4887019000000001  0.3885405700000000  0.5645947200000000
  0.4914437700000001  0.7272858600000000  0.5603368800000000
  0.6600435300000000  0.2208075700000000  0.5599242600000000
  0.6530094900000000  0.5576217500000000  0.5600514500000000
  0.6722323100000001  0.8835551900000000  0.5633935500000000
  0.8238029000000000  0.0577359200000000  0.5598987900000000
  0.8250822100000000  0.3894463000000000  0.5608830200000000
  0.8373836400000001  0.7219987700000000  0.5612216900000000
  0.9923650800000001  0.5596041300000000  0.6859228900000000
  0.9914336099999999  0.8913607000000000  0.6924559599999999
  0.1607691300000000  0.0511625200000000  0.6876963600000000
  0.1622450200000000  0.3945470000000000  0.6872363900000000
  0.1662968700000000  0.7278733900000000  0.6884690900000000
  0.3317026600000000  0.5569525100000000  0.6887140400000000
  0.3292098800000000  0.8996980700000000  0.6938538800000000
  0.5010955300000000  0.0512476400000000  0.6838099100000001
  0.5020350000000000  0.3905263600000000  0.6898723199999999
  0.6656391800000000  0.5572128700000000  0.6867131700000000
  0.6613661300000000  0.8897969500000000  0.6899619700000001
  0.8265009500000000  0.0553287100000000  0.6861959299999999
  0.8222644099999999  0.3921217100000000  0.6839775200000000
  0.8366841900000000  0.7212725800000001  0.6874361900000000
  0.9878260799999999  0.2238489000000000  0.6903403400000001
  0.3361368700000000  0.2167673400000000  0.6886834400000000
  0.5041625500000000  0.7228110000000000  0.6905950000000000
  0.6672855700000000  0.2229531600000000  0.6891272699999998
  0.4929323600000000  0.5052445300000000  0.6240646399999999
  0.1615518000000000  0.1661792600000000  0.6288684100000000
  0.9954729599999999  0.0020945800000000  0.6233234000000000
  0.8286282699999999  0.8317158200000000  0.6256910900000000
  0.6629292500000000  0.6692514600000000  0.6243206100000001
  0.3303993300000000  0.3320275800000000  0.6282450200000000
  0.8274310700000000  0.1658520900000000  0.6245905500000000
  0.1619033500000000  0.5050750899999999  0.6250628400000000
  0.8186440900000000  0.5053252600000000  0.6216324200000000
  0.9989410599999999  0.3349445900000000  0.6285902500000000
  0.6633479000000000  0.3313300200000000  0.6255170100000000
  0.4969446400000000  0.1652848800000000  0.6247829300000000
  0.1625321700000000  0.8428718600000000  0.6287999100000000
  0.6636273100000000  0.9972998400000000  0.6229190200000000
  0.3347002700000000  0.6730381000000000  0.6278123700000000
  0.0034504400000000  0.6717971700000001  0.6252913300000000
  0.4956631499999999  0.8327277900000000  0.6290451400000000
  0.3309570100000000  0.9975566500000002  0.6229922800000000
