Mo  S  W 
 1.0000000000000000
     9.5549999999999997    0.0000000000000000    0.0000000000000000
     0.0000000000000000   16.5497450000000015    0.0000000000000000
     0.0000000000000000    0.0000000000000000   25.0000000000000000
  Mo   S   W
  18  72  18
Direct
  0.1637945700000000  0.0627646900000000  0.3744074100000001
  0.6558358300000000  0.5573826000000000  0.3754714399999999
  0.8195715600000000  0.3918203600000000  0.3763502100000000
  0.9977139100000000  0.2264024300000000  0.3761076900000000
  0.8300821300000000  0.0592082600000000  0.3766678900000000
  0.5067083999999999  0.3881354100000000  0.3759424800000000
  0.9970091299999999  0.8898731700000000  0.3741717099999999
  0.6681143100000000  0.8860339200000000  0.3728208499999999
  0.8336001700000000  0.7166998000000000  0.3716680100000000
  0.3344082700000000  0.5523517800000000  0.3720759400000000
  0.3376138200000000  0.8886286700000000  0.3704376600000000
  0.1645864000000000  0.3877213000000000  0.3751543000000000
  0.0035097100000000  0.5526224400000000  0.3752311900000000
  0.1613652600000000  0.7193844300000000  0.3762822900000000
  0.6716088300000000  0.2304288000000000  0.3736071000000000
  0.4981990300000000  0.0608315200000000  0.3747573200000000
  0.3277725000000000  0.2268894500000000  0.3734006400000000
  0.4990549300000001  0.7204764500000000  0.3707594900000000
  0.9871577400000000  0.3368412800000000  0.3158870300000000
  0.0110611600000000  0.6633540200000000  0.3121452800000000
  0.9941214799999999  0.9994310400000000  0.3135011200000000
  0.1589452700000000  0.1791721500000000  0.3117488500000000
  0.1637162200000000  0.4954031300000000  0.3122965800000000
  0.1775689600000000  0.8269627100000000  0.3119258800000000
  0.3318580300000000  0.3343346700000000  0.3106732200000000
  0.3223237700000000  0.6637646699999999  0.3106766900000000
  0.3338615100000000  0.0087075000000000  0.3114820700000000
  0.5047027200000000  0.1748902000000000  0.3122511400000000
  0.5052138100000000  0.4972009900000000  0.3112150900000000
  0.5092117900000001  0.8348862600000000  0.3076992100000000
  0.6706864200000000  0.3383008800000000  0.3107591700000000
  0.6673600900000000  0.6743597600000000  0.3097296400000000
  0.6603394400000000  0.0064624000000000  0.3122213900000000
  0.8351234700000000  0.1715322100000000  0.3137253900000000
  0.8352877100000000  0.5059846700000000  0.3137633600000000
  0.8291813300000000  0.8322635900000001  0.3111656000000000
  0.9913052700000001  0.6639379600000000  0.4387694000000000
  0.1712825200000000  0.1701459600000000  0.4382065100000000
  0.3370239800000000  0.3351146500000000  0.4363629299999999
  0.3328575700000000  0.6658932900000000  0.4325306300000000
  0.5050049000000000  0.1700115700000000  0.4316697200000000
  0.6602180600000001  0.3327594200000000  0.4399091900000000
  0.6579622300000000  0.6740896700000000  0.4317866600000000
  0.8370354700000000  0.1719146700000000  0.4373176200000000
  0.8225866600000000  0.8285276600000000  0.4319428000000000
  0.9918390000000001  0.3399906800000000  0.4396908200000000
  0.0065149600000000  0.9997975299999999  0.4341126800000000
  0.1768804500000000  0.4971904100000000  0.4391505800000000
  0.1755713000000000  0.8387343400000000  0.4377218800000000
  0.3293449500000000  0.0010040200000000  0.4350296900000000
  0.4902724700000000  0.5037001900000000  0.4371694900000000
  0.4906140999999999  0.8305374800000001  0.4338432600000000
  0.6602907500000000  0.9973063200000001  0.4410329800000000
  0.8194218800000000  0.5095446800000000  0.4392840100000000
  0.9983886100000000  0.2269392100000000  0.5615301200000000
  0.9995300400000000  0.5591427300000000  0.5610992100000000
  0.9970378500000000  0.8876238300000000  0.5655235900000000
  0.1548214000000000  0.0572403300000000  0.5599663400000000
  0.1644565300000000  0.3895636900000000  0.5656908000000000
  0.1654726000000000  0.7251840800000000  0.5630091000000000
  0.3444230300000000  0.2204870300000000  0.5590593200000000
  0.3393919900000000  0.5567377500000000  0.5600488100000000
  0.3451357800000000  0.8863282800000000  0.5598696600000000
  0.4982538700000000  0.0545223700000000  0.5602368400000000
  0.4997829100000000  0.3835444900000000  0.5615199100000000
  0.4988300000000000  0.7210046700000000  0.5634409400000000
  0.6789096100000001  0.2236369000000000  0.5635566400000001
  0.6699846900000000  0.5558358200000000  0.5620192400000000
  0.6801653800000000  0.8834135800000000  0.5644839900000000
  0.8317963700000000  0.0585118300000000  0.5621526000000000
  0.8317329900000000  0.3870587300000000  0.5639699200000000
  0.8291409900000000  0.7204990100000001  0.5663785800000000
  0.0016287500000000  0.5537399500000000  0.6883284499999999
  0.0017145200000000  0.8908799800000000  0.6886681500000000
  0.1616022800000000  0.0582338300000000  0.6849281900000002
  0.1662490600000000  0.3905921500000000  0.6876182299999999
  0.1782232300000000  0.7257497300000000  0.6866537700000001
  0.3369491600000000  0.5539472300000000  0.6862688600000000
  0.3419475700000000  0.8902158100000001  0.6853588100000000
  0.4917038499999999  0.0517421100000000  0.6844236800000000
  0.4821645500000000  0.3940298800000000  0.6895331099999999
  0.6628169100000000  0.5525765600000000  0.6870137500000000
  0.6675334400000000  0.8876098800000000  0.6900963500000000
  0.8333666199999999  0.0524499400000000  0.6862484599999999
  0.8283186299999999  0.3891645900000000  0.6906355100000000
  0.8274797200000000  0.7173486700000000  0.6911820100000000
  0.0117812900000000  0.2201884700000000  0.6884574000000001
  0.3366289900000000  0.2180116000000000  0.6876568400000000
  0.5000364500000000  0.7189170499999999  0.6880221900000000
  0.6640994700000000  0.2202316700000000  0.6882925900000000
  0.5062421000000000  0.4986541700000000  0.6218732100000000
  0.1700839200000000  0.1703806800000000  0.6223636100000000
  0.9947873100000000  0.0008016600000000  0.6234833000000000
  0.8388400900000000  0.8333398700000000  0.6306420400000000
  0.6618775900000000  0.6634403900000000  0.6270992399999999
  0.3297998000000000  0.3319030700000000  0.6266328000000000
  0.8422503000000000  0.1662500600000000  0.6278872599999999
  0.1695088000000000  0.5051288500000000  0.6224285000000001
  0.8338106100000000  0.4979612999999999  0.6255888300000000
  0.9941476400000001  0.3337654400000000  0.6285870500000000
  0.6587949300000000  0.3371233000000000  0.6269862899999999
  0.5101489900000000  0.1646688700000000  0.6236260400000000
  0.1756752500000000  0.8379217300000000  0.6259862200000000
  0.6655341500000000  0.9958869500000002  0.6244209600000000
  0.3336737700000000  0.6670734500000000  0.6254804300000000
  0.0008921800000000  0.6671596000000000  0.6279429700000000
  0.5133372000000000  0.8305244000000001  0.6263905800000000
  0.3202814700000000  0.9988098600000002  0.6220645200000000
