Mo  S  W 
 1.0000000000000000
     9.5549999999999997    0.0000000000000000    0.0000000000000000
     0.0000000000000000   16.5497450000000015    0.0000000000000000
     0.0000000000000000    0.0000000000000000   25.0000000000000000
  Mo   S   W
  18  72  18
Direct
  0.1672330200000000  0.0601117800000000  0.3744662500000000
  0.6546786300000000  0.5592600200000000  0.3753694700000000
  0.8232780300000000  0.3923968000000000  0.3772093900000000
  0.9951611600000000  0.2258979700000000  0.3772603200000000
  0.8325531500000000  0.0593436400000000  0.3773731900000000
  0.5051056700000000  0.3853765100000000  0.3750003200000000
  0.9972408699999999  0.8885856800000000  0.3753946000000001
  0.6686172700000000  0.8875569600000000  0.3715598600000000
  0.8318556900000000  0.7172713500000000  0.3715030700000000
  0.3315480200000000  0.5541664400000000  0.3712211699999999
  0.3353280300000000  0.8893703500000000  0.3705839200000000
  0.1689352500000000  0.3893846000000000  0.3756122900000001
  0.0078208200000000  0.5519010600000001  0.3753652500000000
  0.1613520100000000  0.7200805600000000  0.3770455500000000
  0.6730980400000000  0.2300754500000000  0.3744150300000000
  0.4972863500000000  0.0582128800000000  0.3742051800000000
  0.3358386400000000  0.2255123700000000  0.3735797500000000
  0.5010334000000000  0.7213931600000000  0.3693283200000000
  0.9919320799999999  0.3358489600000000  0.3172552700000000
  0.0040391200000000  0.6644022700000000  0.3092438600000000
  0.9953840599999999  0.0022125200000000  0.3123430400000000
  0.1592085800000000  0.1736687700000000  0.3123095000000000
  0.1630194000000000  0.4971061300000000  0.3122018100000000
  0.1737712300000000  0.8290246700000000  0.3118073200000000
  0.3326116600000000  0.3372433500000000  0.3130299600000000
  0.3215644400000000  0.6658446600000000  0.3124383100000000
  0.3299730600000000  0.0073156700000000  0.3131685000000000
  0.4954206600000000  0.1754724900000000  0.3141861900000000
  0.5063154800000000  0.4946110000000000  0.3110070300000000
  0.5088124800000000  0.8373556900000000  0.3067437100000000
  0.6731208500000000  0.3396214100000000  0.3128272000000000
  0.6696350800000000  0.6684219300000001  0.3095702000000000
  0.6609713600000000  0.0056055200000000  0.3129626400000000
  0.8313335100000000  0.1700391400000000  0.3150568100000000
  0.8235295700000000  0.5026146400000000  0.3148765100000000
  0.8302327200000000  0.8383155100000000  0.3142728900000000
  0.9965626000000000  0.6665282600000000  0.4373288000000000
  0.1680759200000000  0.1708553200000000  0.4404620400000001
  0.3402662900000000  0.3374853100000000  0.4343710900000000
  0.3288509400000000  0.6668731800000000  0.4341284400000000
  0.5053368400000000  0.1695729100000000  0.4335808600000000
  0.6657040000000000  0.3339359900000000  0.4390891300000000
  0.6593922600000000  0.6721982300000000  0.4355779300000001
  0.8349951700000000  0.1722475100000000  0.4412137800000000
  0.8204398600000000  0.8282233100000000  0.4345418300000000
  0.9880008900000000  0.3383684900000000  0.4381344600000000
  0.0033072900000000  0.0041998200000000  0.4329237800000000
  0.1730144700000000  0.5008049900000000  0.4401659500000000
  0.1743958200000000  0.8378863100000000  0.4372622600000000
  0.3349014500000000  0.0000264400000000  0.4354926500000000
  0.4879317300000000  0.5021884700000000  0.4374633500000000
  0.5033669700000000  0.8302359700000000  0.4322376500000000
  0.6567904700000000  0.9976969500000000  0.4384249200000000
  0.8247582700000000  0.5081313700000000  0.4371583400000000
  0.9988102800000001  0.2283619200000000  0.5632786700000000
  0.9984261899999999  0.5604041700000000  0.5622122200000000
  0.9959921499999999  0.8875593700000000  0.5638571999999999
  0.1524894000000000  0.0568872100000000  0.5578533400000000
  0.1604590300000000  0.3905464500000000  0.5648661800000000
  0.1603564800000000  0.7227498000000000  0.5644031200000000
  0.3441259400000000  0.2220599100000000  0.5599754400000000
  0.3408297000000000  0.5540472700000000  0.5595170100000000
  0.3402105200000000  0.8890037200000001  0.5617688100000000
  0.5053070800000000  0.0535294100000000  0.5625121500000000
  0.5018692800000000  0.3799643500000000  0.5601512000000000
  0.4967978000000000  0.7206660300000000  0.5638400900000000
  0.6757402000000000  0.2276464400000000  0.5629315700000000
  0.6764753500000000  0.5566309699999999  0.5622356900000000
  0.6750857500000000  0.8827262000000000  0.5656444300000000
  0.8274312800000000  0.0578923500000000  0.5633106700000000
  0.8319319800000000  0.3831556400000000  0.5637802200000001
  0.8303357000000000  0.7195553000000000  0.5686964100000000
  0.0005955500000000  0.5533409700000000  0.6895701500000000
  0.0014792700000000  0.8893909000000000  0.6891916500000000
  0.1582072900000000  0.0577924700000000  0.6840303200000000
  0.1672857000000000  0.3933756200000000  0.6867444000000000
  0.1735653100000000  0.7269478600000000  0.6859801100000000
  0.3361819800000000  0.5544001500000000  0.6841828599999999
  0.3423982100000000  0.8910949300000000  0.6881744499999999
  0.4964313900000000  0.0529336000000000  0.6839183800000000
  0.4870894300000000  0.3935776600000000  0.6908980200000001
  0.6646210800000000  0.5502799300000000  0.6864234000000000
  0.6733397300000000  0.8879591000000000  0.6899879400000001
  0.8361066400000000  0.0552712800000000  0.6855064100000000
  0.8263926100000000  0.3887908500000000  0.6894948100000000
  0.8275650500000000  0.7178804800000000  0.6902745500000000
  0.0126591100000000  0.2266489000000000  0.6870994200000000
  0.3349387200000000  0.2182256800000000  0.6857211100000000
  0.5015645000000000  0.7186207800000000  0.6888360900000001
  0.6663665900000000  0.2177306600000000  0.6895560100000000
  0.5047029300000000  0.4975498100000000  0.6224658100000000
  0.1701173000000000  0.1708060500000000  0.6218499800000000
  0.9945423700000000  0.0023683100000000  0.6227927000000000
  0.8369648600000000  0.8329153800000000  0.6307943100000000
  0.6633924100000000  0.6629425400000000  0.6261722900000000
  0.3305802800000000  0.3337400800000000  0.6266947000000000
  0.8429843000000001  0.1656782900000000  0.6262491700000000
  0.1671742900000000  0.5037193000000000  0.6223983900000000
  0.8353491500000000  0.4974552700000001  0.6258531200000000
  0.9921748299999998  0.3355722600000000  0.6272664800000000
  0.6591462200000000  0.3352697200000000  0.6275577700000000
  0.5038783600000000  0.1664018800000000  0.6245794800000000
  0.1746258500000000  0.8366224700000000  0.6263844800000000
  0.6675947800000001  0.9965965000000001  0.6243412400000000
  0.3337865000000000  0.6659051900000000  0.6249071100000000
  0.0011895600000000  0.6663072100000000  0.6277299100000000
  0.5122528800000000  0.8295935300000000  0.6256470900000000
  0.3234233300000000  0.0000215400000000  0.6217060900000000
