Mo  S  W 
 1.0000000000000000
     9.5549999999999997    0.0000000000000000    0.0000000000000000
     0.0000000000000000   16.5497450000000015    0.0000000000000000
     0.0000000000000000    0.0000000000000000   25.0000000000000000
  Mo   S   W
  18  72  18
Direct
  0.1647347800000000  0.0555087700000000  0.3752797300000000
  0.6638252600000000  0.5512475700000000  0.3754958700000000
  0.8357756400000000  0.3936078000000000  0.3758654000000000
  0.9988483000000000  0.2217596400000000  0.3744303600000000
  0.8312255100000000  0.0540307400000000  0.3759887600000000
  0.5031742200000000  0.3850230200000000  0.3717558300000000
  0.9975013400000000  0.8888933400000000  0.3745345900000000
  0.6649064300000000  0.8839976500000000  0.3800572500000000
  0.8388443300000001  0.7128449300000000  0.3787816500000000
  0.3327589600000000  0.5469090300000000  0.3756691800000000
  0.3315549100000000  0.8848884100000000  0.3740030799999999
  0.1649023500000000  0.3804878300000000  0.3756613000000000
  0.9979215299999999  0.5504531400000000  0.3796319100000000
  0.1613999800000000  0.7148297100000000  0.3772526000000000
  0.6689099200000000  0.2170374800000000  0.3724412400000000
  0.5019354499999999  0.0568142700000000  0.3729002200000000
  0.3347492400000000  0.2266543200000000  0.3698779200000001
  0.4920961200000000  0.7154345500000000  0.3760156200000000
  0.9923143400000000  0.3339983700000000  0.3115681700000000
  0.0031831900000000  0.6556760900000000  0.3170083800000000
  0.9985618600000000  0.0016124800000000  0.3156382700000000
  0.1538642500000000  0.1684480800000000  0.3110078000000000
  0.1594502000000000  0.4968174100000000  0.3143269600000000
  0.1667117500000000  0.8249932900000000  0.3159892000000000
  0.3351759500000000  0.3336962400000000  0.3105453100000000
  0.3192494300000000  0.6584538700000000  0.3121123700000000
  0.3223443400000000  0.9988825499999999  0.3112448800000000
  0.5070891300000000  0.1630948200000000  0.3043086800000000
  0.4981833600000000  0.4956002000000000  0.3119467400000000
  0.5002267800000000  0.8334357999999999  0.3119552500000000
  0.6838605300000000  0.3382849800000000  0.3138515200000000
  0.6649962500000000  0.6707779699999999  0.3152505200000000
  0.6690453600000000  0.9940578300000000  0.3139967400000000
  0.8333180200000000  0.1676171400000000  0.3112828600000000
  0.8326128300000000  0.5059624200000000  0.3158096100000000
  0.8355986300000000  0.8248228200000000  0.3180738900000000
  0.0068714100000000  0.6621451100000000  0.4401604100000000
  0.1741424300000000  0.1669484400000000  0.4346060900000000
  0.3421323100000000  0.3324554100000000  0.4402832200000000
  0.3290247000000000  0.6584878700000000  0.4392490900000000
  0.4911438800000000  0.1669324700000000  0.4309861100000000
  0.6700711900000000  0.3381375700000000  0.4332119700000000
  0.6626421700000000  0.6638287400000000  0.4366658700000000
  0.8370604800000000  0.1635539000000000  0.4364424100000000
  0.8391093500000000  0.8339826400000000  0.4366068800000000
  0.9921672999999999  0.3374051100000000  0.4386005300000000
  0.0048211200000000  0.9949318600000000  0.4381889100000000
  0.1713570700000000  0.4902842800000000  0.4372028400000000
  0.1721327900000000  0.8321030600000000  0.4362341900000001
  0.3266648700000000  0.0003520800000000  0.4360653500000000
  0.5064405500000000  0.4929623500000000  0.4351841900000000
  0.4939245299999999  0.8364902200000000  0.4383549400000000
  0.6664247300000000  0.0001323400000000  0.4386163800000000
  0.8234013900000000  0.5040825100000000  0.4445366300000000
  0.9951019300000001  0.2255505400000000  0.5595757400000000
  0.0057902500000000  0.5609196600000000  0.5616304300000000
  0.0018264600000000  0.8855123100000000  0.5643680100000000
  0.1718122300000000  0.0602298600000000  0.5638838000000000
  0.1644677400000000  0.3932849900000000  0.5634403900000000
  0.1715208300000000  0.7276516300000000  0.5606036300000000
  0.3351837700000000  0.2243643600000000  0.5625171600000000
  0.3337077300000000  0.5595351700000000  0.5594213800000000
  0.3295182300000000  0.8931235800000000  0.5647654100000000
  0.5002357900000000  0.0571557000000000  0.5602714800000000
  0.4962640700000000  0.3896154600000000  0.5654226600000000
  0.5012362200000000  0.7233316100000000  0.5601552200000000
  0.6607044300000000  0.2243816500000000  0.5627626900000000
  0.6704094600000000  0.5573356800000000  0.5570225100000000
  0.6674251400000000  0.8936645100000000  0.5625126400000000
  0.8369553199999999  0.0548139500000000  0.5623868900000000
  0.8349528800000000  0.3888435000000000  0.5621178200000000
  0.8370897100000000  0.7250003000000000  0.5609039700000000
  0.9918711000000000  0.5598512800000000  0.6866198699999999
  0.0009728200000000  0.8918111700000000  0.6866046000000000
  0.1681586400000000  0.0588900600000000  0.6862421499999999
  0.1587424300000000  0.3991250000000000  0.6889067700000000
  0.1630604600000000  0.7222248500000000  0.6898131199999998
  0.3395037200000000  0.5589391700000000  0.6867023200000000
  0.3377462300000000  0.8909792400000000  0.6879070100000000
  0.5075699200000000  0.0512453900000000  0.6898213200000000
  0.4978167600000000  0.3918361200000000  0.6870067000000000
  0.6683555900000000  0.5536539300000000  0.6852779000000000
  0.6725947900000000  0.8884742700000000  0.6873248400000000
  0.8360999300000000  0.0600403300000000  0.6841631700000000
  0.8319055500000000  0.3919709500000000  0.6842292200000000
  0.8304939900000000  0.7228665500000000  0.6874896600000000
  0.9876375800000000  0.2214558300000000  0.6858323900000000
  0.3260357500000000  0.2180441900000000  0.6906462400000000
  0.5052909300000000  0.7260717900000000  0.6823331400000001
  0.6657005300000000  0.2261172500000000  0.6880701099999998
  0.5010624900000000  0.5024326200000000  0.6227369800000000
  0.1588975700000000  0.1741932000000000  0.6242333200000000
  0.0110570800000000  0.0004373400000000  0.6236079000000000
  0.8335273100000000  0.8345724700000000  0.6239265200000000
  0.6723276200000000  0.6676072600000000  0.6220779400000001
  0.3283207200000000  0.3347735300000000  0.6286576400000000
  0.8249975899999999  0.1668808300000000  0.6224410500000001
  0.1674394400000000  0.5082940500000001  0.6262009400000000
  0.8351991500000000  0.5031863700000000  0.6215037900000000
  0.0027321800000000  0.3340068500000000  0.6254364600000000
  0.6692686799999999  0.3360531000000000  0.6261193000000000
  0.5044587900000000  0.1654341900000000  0.6267865500000001
  0.1620945900000000  0.8354324500000000  0.6278865700000000
  0.6676287800000000  0.0020305700000000  0.6231715799999999
  0.3348491700000000  0.6708852100000000  0.6240275100000000
  0.9982802600000001  0.6722365500000000  0.6257249400000000
  0.5011649900000000  0.8384435099999999  0.6243376100000000
  0.3363926300000000  0.0007540800000000  0.6274653500000000
