Mo  S  W 
 1.0000000000000000
     9.5549999999999997    0.0000000000000000    0.0000000000000000
     0.0000000000000000   16.5497450000000015    0.0000000000000000
     0.0000000000000000    0.0000000000000000   25.0000000000000000
  Mo   S   W
  18  72  18
Direct
  0.1565527700000000  0.0589201100000000  0.3729340500000000
  0.6572308300000000  0.5578265800000000  0.3727348900000000
  0.8351580900000000  0.3925595700000000  0.3724588699999999
  0.9861370699999999  0.2270051100000000  0.3699034100000000
  0.8302328100000000  0.0611894100000000  0.3722938400000000
  0.4911569400000000  0.3883485100000000  0.3731744200000000
  0.0013394800000000  0.8929045000000000  0.3707995000000001
  0.6674588100000000  0.8852974500000000  0.3751160000000000
  0.8375935900000000  0.7163838900000000  0.3737797800000000
  0.3312987300000000  0.5565603600000000  0.3748442200000000
  0.3297447900000000  0.8876790200000000  0.3749489100000000
  0.1592048600000000  0.3893178200000000  0.3748110200000000
  0.9988662200000001  0.5537359500000000  0.3748827200000000
  0.1641741000000000  0.7236180200000000  0.3756398799999999
  0.6588275800000000  0.2230809700000000  0.3762683000000000
  0.4933603000000000  0.0630008400000000  0.3779345000000000
  0.3260388400000000  0.2299388200000000  0.3705795500000000
  0.4977763500000000  0.7233645399999999  0.3768015699999999
  0.9926186199999999  0.3444791300000000  0.3083508100000000
  0.9996328900000000  0.6607818700000000  0.3147304800000000
  0.9972941100000000  0.0031359100000000  0.3110647200000000
  0.1533869100000000  0.1673609300000000  0.3111304400000000
  0.1615888700000000  0.4993210100000000  0.3135094200000000
  0.1643960000000000  0.8399304500000000  0.3108960000000000
  0.3337631200000000  0.3394473300000000  0.3042858100000000
  0.3332541700000000  0.6676242700000000  0.3122259900000000
  0.3280202600000000  0.0057130900000000  0.3136316900000000
  0.4849498200000000  0.1689056800000000  0.3116972100000000
  0.4879909000000000  0.4974429900000000  0.3123202000000000
  0.4884994200000000  0.8355543300000000  0.3116504600000000
  0.6636734100000000  0.3360292900000000  0.3095406100000000
  0.6597308700000000  0.6707575099999999  0.3122439100000000
  0.6649700900000000  0.9971327200000000  0.3107787000000000
  0.8209598200000000  0.1691702200000000  0.3113026700000000
  0.8276440500000000  0.5042731300000000  0.3098229200000000
  0.8396228700000000  0.8302061500000000  0.3140535400000000
  0.0101171600000000  0.6666359700000000  0.4384244200000000
  0.1563112000000000  0.1744010400000000  0.4305127600000000
  0.3304698100000000  0.3363395400000000  0.4336186000000000
  0.3290227300000000  0.6670316500000000  0.4380660900000000
  0.4895538700000000  0.1746269700000000  0.4409069000000000
  0.6654572800000000  0.3356569900000000  0.4327947400000000
  0.6669404300000000  0.6678840000000000  0.4370143499999999
  0.8326021700000000  0.1688238300000000  0.4331318800000000
  0.8357059500000000  0.8272734700000000  0.4338027900000000
  0.9796067399999999  0.3329755300000000  0.4398394900000000
  0.9990244600000000  0.9987434199999999  0.4353823400000000
  0.1629926000000000  0.5018834300000000  0.4393162000000000
  0.1640732700000000  0.8314613300000000  0.4355390900000000
  0.3249564000000000  0.0021953700000000  0.4371503200000000
  0.4987931000000000  0.4948034500000000  0.4352445400000000
  0.4961339800000000  0.8364760800000000  0.4379169400000000
  0.6635313700000000  0.0002552100000000  0.4350954300000000
  0.8302108400000000  0.5007704300000000  0.4301753600000000
  0.9970825600000000  0.2202802300000000  0.5657157000000000
  0.0014215200000000  0.5564933800000000  0.5597961200000000
  0.9993290800000000  0.8892830100000000  0.5663305000000000
  0.1665702200000000  0.0580770200000000  0.5616473000000000
  0.1550356400000000  0.3896465400000000  0.5640389600000000
  0.1680234900000000  0.7295189300000000  0.5621567100000000
  0.3319915300000000  0.2210968600000000  0.5625567400000000
  0.3387624900000000  0.5602669000000000  0.5623834100000000
  0.3500304000000000  0.8830737500000000  0.5629278800000000
  0.5112681800000000  0.0506476300000000  0.5573316500000000
  0.5038426600000000  0.3860198400000000  0.5625837400000000
  0.5027662899999999  0.7211473000000000  0.5635806600000000
  0.6723152700000000  0.2235338900000000  0.5665670200000000
  0.6717699000000000  0.5610962300000000  0.5624387300000000
  0.6810052100000000  0.8835681399999999  0.5648210299999999
  0.8322908300000000  0.0526924300000000  0.5602256500000000
  0.8313521600000000  0.3847601500000000  0.5670328300000000
  0.8361196300000000  0.7207631900000000  0.5656111200000000
  0.0091760600000000  0.5563531100000000  0.6879383600000000
  0.9993089700000001  0.8931275000000000  0.6885458200000000
  0.1710190400000000  0.0548525900000000  0.6854588900000000
  0.1712468600000000  0.3920557100000000  0.6910942600000000
  0.1716592400000000  0.7305364300000000  0.6881088500000000
  0.3354340000000000  0.5531435000000000  0.6861566000000000
  0.3390454100000000  0.8936002800000000  0.6857601700000001
  0.4935771600000000  0.0515279300000000  0.6885721100000000
  0.4938881500000000  0.3894296100000000  0.6862087400000000
  0.6678690800000000  0.5502192100000000  0.6860122800000000
  0.6671310900000000  0.8909484000000000  0.6898257700000001
  0.8407326800000000  0.0519807600000000  0.6889057200000001
  0.8294323300000001  0.3916925600000000  0.6904607000000000
  0.8360970700000000  0.7192703200000000  0.6909509900000000
  0.0039928600000000  0.2177238700000000  0.6906955099999998
  0.3452880300000000  0.2192170200000000  0.6882779300000000
  0.5028593200000000  0.7185357800000000  0.6933660200000000
  0.6652885900000000  0.2140013400000000  0.6896084099999998
  0.5044943600000000  0.4974205100000000  0.6240297000000000
  0.1693088900000000  0.1660289400000000  0.6254309700000000
  0.0009196800000000  0.9999805500000001  0.6237509400000000
  0.8367024400000000  0.8300807500000000  0.6297707800000000
  0.6695294899999999  0.6682751900000000  0.6270513400000000
  0.3324227500000000  0.3309688100000000  0.6249294700000000
  0.8341062500000000  0.1626874500000000  0.6283713200000000
  0.1709328700000000  0.5037037700000000  0.6237293000000000
  0.8364708400000000  0.4992132600000000  0.6254807900000000
  0.0031027100000000  0.3343046200000000  0.6290582800000000
  0.6625664600000000  0.3341629500000000  0.6279835600000000
  0.5060111800000000  0.1600746200000000  0.6239322800000000
  0.1689072000000000  0.8413439400000000  0.6254134700000000
  0.6728152800000000  0.9955986500000001  0.6245298600000000
  0.3330538100000000  0.6709226600000000  0.6239117500000000
  0.0067725100000000  0.6702700800000000  0.6253355000000000
  0.5099698600000000  0.8327471800000000  0.6285016800000000
  0.3344807700000000  0.9998961200000001  0.6194344500000000
