Mo  S  W 
 1.0000000000000000
     9.5549999999999997    0.0000000000000000    0.0000000000000000
     0.0000000000000000   16.5497450000000015    0.0000000000000000
     0.0000000000000000    0.0000000000000000   25.0000000000000000
  Mo   S   W
  18  72  18
Direct
  0.1759835500000000  0.0494176700000000  0.3768908100000000
  0.6650056000000000  0.5569162100000000  0.3758355400000000
  0.8298208900000000  0.3785106300000000  0.3720572500000000
  0.0018608600000000  0.2160244100000000  0.3740451800000000
  0.8352973500000000  0.0523844800000000  0.3739372300000000
  0.5025029000000000  0.3837982500000000  0.3738024300000000
  0.9940470100000000  0.8857557000000000  0.3766793899999999
  0.6633750800000000  0.8851788300000000  0.3741903100000000
  0.8255771400000000  0.7252055400000000  0.3758127300000000
  0.3317114200000000  0.5549557400000000  0.3739095100000000
  0.3287497300000000  0.8851916600000000  0.3736316200000001
  0.1689972900000000  0.3889110100000000  0.3730336900000000
  0.0013193500000000  0.5521338200000000  0.3724388700000000
  0.1666774100000000  0.7211687000000000  0.3709447400000000
  0.6697584900000000  0.2223259200000000  0.3737375600000000
  0.5032042000000000  0.0528085900000000  0.3739183700000000
  0.3386825900000000  0.2159225300000000  0.3729077700000001
  0.5050677400000000  0.7203277200000000  0.3774459400000000
  0.0070914900000000  0.3290418000000000  0.3144978600000000
  0.9954325600000000  0.6733926500000000  0.3149030600000000
  0.0095762700000000  0.9905876800000001  0.3140800900000000
  0.1681451900000000  0.1579406200000000  0.3096699400000000
  0.1630062100000000  0.4976635400000000  0.3115901200000000
  0.1652171200000000  0.8343863600000000  0.3094812400000000
  0.3386866500000000  0.3308406200000000  0.3101923000000000
  0.3423345500000000  0.6664140800000000  0.3114127700000000
  0.3423144900000000  0.9966150700000000  0.3118111100000000
  0.5060841200000000  0.1645027900000000  0.3139713300000000
  0.5092200700000000  0.5015421100000000  0.3137240400000000
  0.4948104300000001  0.8313103700000000  0.3131885900000000
  0.6677433500000000  0.3268078500000000  0.3102342600000000
  0.6715260000000000  0.6679377399999999  0.3113977800000000
  0.6669618300000000  0.0002568300000000  0.3116805000000000
  0.8320322999999999  0.1581130900000000  0.3101075000000000
  0.8329066000000001  0.4970993599999999  0.3100822200000000
  0.8320805700000000  0.8358303900000000  0.3120154300000000
  0.9985263899999999  0.6664386400000000  0.4333002900000000
  0.1689965100000000  0.1658118900000000  0.4370360700000000
  0.3362071700000000  0.3287278400000000  0.4328346600000000
  0.3216999400000000  0.6655955000000000  0.4366267500000000
  0.5055677100000000  0.1622639900000000  0.4365479300000000
  0.6690967300000000  0.3288439600000000  0.4366217500000000
  0.6625058400000000  0.6627493900000000  0.4391194000000000
  0.8417606900000000  0.1621742600000000  0.4380681600000000
  0.8249877300000000  0.8348883200000000  0.4361264900000000
  0.0110696400000000  0.3309816100000000  0.4357095600000001
  0.0044678500000000  0.0004261200000000  0.4353508100000000
  0.1651043800000000  0.5017584100000000  0.4367454300000000
  0.1608736600000000  0.8297867700000000  0.4359463599999999
  0.3406117700000000  0.9963249100000001  0.4376120600000000
  0.4966277800000000  0.5022803700000000  0.4385831299999999
  0.4900803600000000  0.8334165700000000  0.4403808600000000
  0.6719524700000000  0.9937066999999999  0.4337342599999999
  0.8304439000000000  0.4964177600000000  0.4338067000000000
  0.9976871100000000  0.2243868000000000  0.5666495300000000
  0.9967973000000001  0.5604126800000000  0.5601850200000000
  0.9935027099999999  0.8930391900000000  0.5599343000000000
  0.1710428200000000  0.0541300300000000  0.5601581700000000
  0.1803859900000000  0.3897418900000000  0.5658061800000000
  0.1802849100000000  0.7268411200000000  0.5634191800000000
  0.3301320300000000  0.2234504800000000  0.5624242000000000
  0.3246694900000000  0.5686063900000000  0.5609267999999999
  0.3382807200000000  0.8936773600000000  0.5637749399999999
  0.5005192000000001  0.0528467400000000  0.5616887699999999
  0.4898436500000001  0.3890473600000000  0.5637924400000000
  0.5016044000000000  0.7260200800000000  0.5670871500000000
  0.6566589100000000  0.2228796700000000  0.5624206600000000
  0.6506020200000000  0.5608356100000000  0.5595456599999999
  0.6658129400000000  0.8812782000000000  0.5619536900000000
  0.8311582600000000  0.0555903900000000  0.5612082000000000
  0.8354455900000000  0.3890777100000000  0.5613584400000000
  0.8280454500000000  0.7249135700000000  0.5606850700000000
  0.9939439299999999  0.5613664400000000  0.6822971500000000
  0.9915953000000000  0.8903055600000001  0.6860831700000000
  0.1622202900000000  0.0562436100000000  0.6857059800000000
  0.1710829600000000  0.3952748800000000  0.6883060500000000
  0.1729458200000000  0.7295608300000000  0.6909259700000000
  0.3284922700000000  0.5585281900000000  0.6883131300000001
  0.3228044300000000  0.8946847700000000  0.6927503200000001
  0.5100137700000000  0.0529814100000000  0.6881032600000000
  0.5084584500000000  0.3914442400000000  0.6905205900000000
  0.6630189300000000  0.5556865400000000  0.6850429800000000
  0.6588281900000000  0.8917895400000000  0.6902818400000001
  0.8351812600000000  0.0540973100000000  0.6857820200000000
  0.8368407300000000  0.3954355500000000  0.6860617400000000
  0.8397367900000000  0.7255882900000000  0.6884019000000001
  0.9962447399999999  0.2233772100000000  0.6877821400000000
  0.3350108100000000  0.2144742800000000  0.6898528700000000
  0.5109602200000000  0.7241910800000000  0.6919844200000000
  0.6661089100000001  0.2208163600000000  0.6880477600000000
  0.4917179200000000  0.5026918600000000  0.6260265400000000
  0.1645972200000000  0.1657891300000000  0.6253890700000000
  0.9996550500000001  0.0019393800000000  0.6216092800000000
  0.8227569200000000  0.8351006200000000  0.6252125700000000
  0.6735457700000000  0.6710407100000000  0.6260539700000000
  0.3402801300000000  0.3350030900000000  0.6305285000000000
  0.8229126700000000  0.1650277500000000  0.6253793400000000
  0.1616971700000000  0.5058192500000001  0.6236038300000000
  0.8258910100000000  0.5036894200000001  0.6214202100000000
  0.0057255600000000  0.3389858200000000  0.6267168500000000
  0.6688811600000000  0.3352596200000000  0.6256297100000000
  0.4972098900000000  0.1620829300000000  0.6263785500000000
  0.1613963800000000  0.8407238400000000  0.6262712900000000
  0.6687132600000000  0.9960865799999999  0.6227147700000000
  0.3384029100000000  0.6758201900000000  0.6290005600000000
  0.0080860700000000  0.6745142700000000  0.6221275300000000
  0.5008555700000000  0.8361016500000000  0.6294340500000000
  0.3399023500000000  0.0027402000000000  0.6249704400000000
