Mo  S  W 
 1.0000000000000000
     9.5549999999999997    0.0000000000000000    0.0000000000000000
     0.0000000000000000   16.5497450000000015    0.0000000000000000
     0.0000000000000000    0.0000000000000000   25.0000000000000000
  Mo   S   W
  18  72  18
Direct
  0.1704040700000000  0.0518642600000000  0.3724379200000000
  0.6711004500000000  0.5501489100000000  0.3750097200000000
  0.8365201600000000  0.3805623900000000  0.3724658300000000
  0.0158200100000000  0.2137905700000000  0.3726727500000000
  0.8389556900000000  0.0493390100000000  0.3734526000000000
  0.5024701100000000  0.3907370300000000  0.3742096300000000
  0.9982218300000001  0.8833666000000000  0.3753495900000000
  0.6616242700000000  0.8919883199999999  0.3714514600000001
  0.8312233200000000  0.7248901100000000  0.3720530200000000
  0.3353340400000000  0.5585909200000000  0.3730771000000000
  0.3383191200000000  0.8875891400000000  0.3765198800000000
  0.1694956500000000  0.3882145200000000  0.3718036200000000
  0.9967227800000001  0.5581535600000000  0.3679278700000000
  0.1644343500000000  0.7245710700000000  0.3724810000000000
  0.6686940099999999  0.2157336500000000  0.3748417200000000
  0.5066240500000000  0.0468106500000000  0.3757352400000001
  0.3313012100000000  0.2135925000000000  0.3775561500000000
  0.4995979100000000  0.7214991800000000  0.3733811000000000
  0.0041690000000000  0.3223427700000000  0.3071259000000000
  0.9911966000000001  0.6670964100000000  0.3040621300000000
  0.0014834400000000  0.9993106599999999  0.3115201000000000
  0.1772402700000000  0.1601173800000000  0.3105038400000000
  0.1769813100000000  0.5050540400000000  0.3064307300000000
  0.1662178300000000  0.8353355800000000  0.3132559800000000
  0.3355036400000000  0.3240816500000000  0.3168730100000000
  0.3335642000000000  0.6688798900000000  0.3116236200000000
  0.3332314400000000  0.9946707700000000  0.3123407500000000
  0.5015934100000000  0.1586330700000000  0.3114131700000000
  0.4955002600000000  0.4990960799999999  0.3111522100000000
  0.5002437500000000  0.8307643100000000  0.3108702700000000
  0.6595092200000000  0.3318511500000000  0.3090305000000000
  0.6630935700000000  0.6644852700000000  0.3128316200000000
  0.6696565900000000  0.9982769800000000  0.3099243000000000
  0.8391807100000001  0.1670840700000000  0.3129286500000000
  0.8258325700000000  0.4913293100000001  0.3132780800000000
  0.8263650200000000  0.8344348200000000  0.3098520000000000
  0.9951982700000002  0.6675374200000000  0.4336268000000000
  0.1727926900000000  0.1552787100000000  0.4396090100000000
  0.3313788500000000  0.3353213300000000  0.4393965100000001
  0.3345966200000000  0.6721848300000000  0.4352029500000000
  0.5059550200000000  0.1607075400000000  0.4374842100000000
  0.6631084800000000  0.3344463500000000  0.4373951200000000
  0.6771331300000000  0.6662716200000000  0.4372388900000000
  0.8405952500000000  0.1631713200000000  0.4333930400000000
  0.8212128100000000  0.8339733499999999  0.4396570900000000
  0.0009371200000000  0.3305643000000000  0.4335399900000000
  0.0051249700000000  0.9922865000000000  0.4393752900000000
  0.1614977200000000  0.5034784300000000  0.4307405400000001
  0.1671213200000000  0.8311994900000000  0.4382507600000000
  0.3308324700000000  0.9960638699999999  0.4383926100000000
  0.4997204399999999  0.4988183400000000  0.4364163400000000
  0.5094116700000000  0.8327381700000001  0.4356638500000000
  0.6744704900000000  0.0002576900000000  0.4401713600000000
  0.8460654600000000  0.4902395199999999  0.4341599300000000
  0.0036761400000000  0.2239668700000000  0.5637488600000000
  0.9979912499999999  0.5572207400000000  0.5610007000000000
  0.9940748600000000  0.8870940600000000  0.5624678200000000
  0.1618902200000000  0.0566238700000000  0.5623949900000000
  0.1682897900000000  0.3877082600000000  0.5630392000000000
  0.1763303100000000  0.7319792300000000  0.5632431800000000
  0.3325756200000000  0.2225804700000000  0.5664017000000000
  0.3348906500000000  0.5591670700000000  0.5678867100000000
  0.3375306200000000  0.8881166400000000  0.5635912300000000
  0.5051296500000000  0.0574709800000000  0.5618408600000000
  0.5096879300000000  0.3951677500000000  0.5643434800000000
  0.5017510300000000  0.7253310500000000  0.5643802999999999
  0.6689409300000000  0.2206465600000000  0.5644352300000000
  0.6609588100000000  0.5602119700000000  0.5672772600000000
  0.6487544900000000  0.8900812200000000  0.5631228900000000
  0.8241918300000000  0.0598914400000000  0.5602250300000000
  0.8303277500000000  0.3909659200000000  0.5627287800000000
  0.8364016900000000  0.7253682200000000  0.5636144199999999
  0.9956141500000000  0.5595185700000000  0.6860369900000000
  0.9948592600000001  0.8971103700000000  0.6872256700000000
  0.1625470300000000  0.0483558600000000  0.6885793100000001
  0.1680031000000000  0.3928900600000000  0.6884413800000000
  0.1563879300000000  0.7298963000000001  0.6857702800000000
  0.3204457100000000  0.5591588100000000  0.6896782600000000
  0.3336678500000000  0.8938861000000000  0.6873636700000000
  0.5003131500000000  0.0531536100000000  0.6856517000000000
  0.5047626900000000  0.3901261200000000  0.6903521000000000
  0.6640235300000000  0.5577367900000000  0.6904488100000000
  0.6758601500000000  0.8878460900000000  0.6912054700000000
  0.8266177300000001  0.0563106600000000  0.6887115600000000
  0.8280261400000000  0.3914955300000000  0.6875817400000002
  0.8423086000000000  0.7240630700000000  0.6862443200000000
  0.0041761800000000  0.2240883900000000  0.6872053700000000
  0.3295593500000000  0.2219327000000000  0.6893206100000000
  0.5021954700000000  0.7249822200000000  0.6939047699999999
  0.6603415100000000  0.2230797300000000  0.6877561300000000
  0.4923227000000001  0.5046690400000000  0.6279400800000000
  0.1699255300000000  0.1617975300000000  0.6268414800000000
  0.9887461199999998  0.0040202800000000  0.6231311100000000
  0.8301178100000000  0.8366824200000000  0.6251736900000000
  0.6634209500000000  0.6709412700000000  0.6279683200000000
  0.3437201100000000  0.3342891200000000  0.6269927300000000
  0.8373710500000001  0.1681786500000000  0.6262645700000000
  0.1643203700000000  0.5012062000000000  0.6234497900000000
  0.8272777900000000  0.5045767400000000  0.6238348900000000
  0.9987468099999999  0.3385198300000000  0.6257826700000000
  0.6652916000000000  0.3341930800000000  0.6249810400000000
  0.4944593400000000  0.1683122100000000  0.6247062700000000
  0.1693403000000000  0.8398564900000000  0.6235594400000000
  0.6676016000000000  0.9972877800000000  0.6250956500000000
  0.3370905300000000  0.6733779800000000  0.6299619200000000
  0.0037544200000000  0.6717618300000000  0.6226907100000000
  0.4960633199999999  0.8341261300000000  0.6299385900000000
  0.3310502400000000  0.0027731100000000  0.6243009800000000
