Mo  S  W 
 1.0000000000000000
     9.5549999999999997    0.0000000000000000    0.0000000000000000
     0.0000000000000000   16.5497450000000015    0.0000000000000000
     0.0000000000000000    0.0000000000000000   25.0000000000000000
  Mo   S   W
  18  72  18
Direct
  0.1649547300000000  0.0554071000000000  0.3753053800000000
  0.6639587800000000  0.5513755299999999  0.3754232700000000
  0.8357919900000000  0.3936305100000000  0.3758241200000000
  0.9987576200000000  0.2216579700000000  0.3743827300000000
  0.8313342700000000  0.0540427300000000  0.3759309200000000
  0.5033528400000000  0.3850135400000000  0.3717812600000000
  0.9975811400000000  0.8888970800000000  0.3744998100000000
  0.6647547600000000  0.8839399900000000  0.3800328000000001
  0.8386143599999999  0.7129011700000000  0.3787966400000001
  0.3326900600000000  0.5469350100000000  0.3756237199999999
  0.3313198300000000  0.8848426000000000  0.3740462400000000
  0.1651846300000000  0.3805163500000000  0.3756842100000000
  0.9977911800000000  0.5504987300000000  0.3795695600000000
  0.1615747600000000  0.7149642899999999  0.3771687300000000
  0.6691551700000000  0.2168090700000000  0.3725479199999999
  0.5021533500000001  0.0569116700000000  0.3729764100000000
  0.3347576700000000  0.2266911800000000  0.3698247099999999
  0.4920730400000000  0.7154084300000000  0.3761006000000001
  0.9923257299999999  0.3339737000000000  0.3114014900000000
  0.0027488500000000  0.6554510000000000  0.3168996500000000
  0.9987113600000002  0.0019708700000000  0.3156323100000000
  0.1541416000000000  0.1682769800000000  0.3112841600000000
  0.1597001600000000  0.4970490100000000  0.3141769700000000
  0.1662095500000000  0.8251003800000000  0.3159353400000000
  0.3351006300000000  0.3337409500000000  0.3105001900000000
  0.3196077000000000  0.6586079100000000  0.3120717300000000
  0.3223391300000000  0.9988603899999999  0.3111690800000000
  0.5073220400000000  0.1631175800000000  0.3041289900000000
  0.4978359400000000  0.4954988299999999  0.3119964000000000
  0.5001061400000000  0.8333185300000000  0.3118217600000000
  0.6834753200000000  0.3383073600000000  0.3138216900000000
  0.6645702999999999  0.6709437200000000  0.3152929300000000
  0.6691428900000000  0.9938785999999999  0.3138594100000000
  0.8335201700000000  0.1677997300000000  0.3113574800000000
  0.8324309900000000  0.5058340400000000  0.3158807000000000
  0.8354989000000000  0.8248248800000000  0.3180416800000000
  0.0070538400000000  0.6621546800000000  0.4400036800000000
  0.1742196700000000  0.1668220700000000  0.4344686300000000
  0.3420196400000000  0.3323094500000000  0.4403509200000000
  0.3295324800000000  0.6585130900000000  0.4391392700000000
  0.4911318300000000  0.1671756800000000  0.4310545100000000
  0.6702522300000000  0.3381198800000000  0.4333088300000000
  0.6629595600000000  0.6642464800000000  0.4367435800000001
  0.8363781000000000  0.1635801900000000  0.4363643000000000
  0.8391700700000000  0.8339065800000000  0.4367481700000000
  0.9918977199999999  0.3372682400000000  0.4385840200000001
  0.0045647900000000  0.9949028000000000  0.4383205300000000
  0.1713102600000000  0.4901763900000000  0.4372258300000000
  0.1723248300000000  0.8319534500000000  0.4361616100000000
  0.3271762800000000  0.0001310300000000  0.4361378699999999
  0.5064433100000000  0.4927948600000000  0.4348641500000000
  0.4940063900000001  0.8364817300000000  0.4381318800000000
  0.6661427200000000  0.0002728300000000  0.4386552400000000
  0.8235336100000000  0.5039164300000000  0.4444347300000000
  0.9947192200000001  0.2255203700000000  0.5595651600000000
  0.0055442100000000  0.5610097800000000  0.5615189200000000
  0.0015479600000000  0.8852945300000000  0.5645685900000000
  0.1721002100000000  0.0603980700000000  0.5639640400000000
  0.1644967800000000  0.3933359600000000  0.5633924800000000
  0.1716003600000000  0.7279941200000000  0.5605049400000000
  0.3353299100000000  0.2243134000000000  0.5627067500000000
  0.3339278300000000  0.5594768200000000  0.5596195700000000
  0.3293936600000000  0.8928667000000000  0.5649473400000000
  0.5005190500000000  0.0570996300000000  0.5601035599999999
  0.4966555700000000  0.3894759400000000  0.5655576300000000
  0.5014910800000000  0.7234389900000000  0.5602064900000000
  0.6607553900000001  0.2242979800000000  0.5628998500000000
  0.6702730600000000  0.5572520500000000  0.5571117200000000
  0.6667921300000000  0.8938298900000000  0.5625308900000000
  0.8368950100000000  0.0548222300000000  0.5623288400000001
  0.8352020800000000  0.3888012100000000  0.5621919600000000
  0.8375904800000000  0.7250242700000000  0.5609752099999999
  0.9916922100000000  0.5599210500000000  0.6866023300000000
  0.0007064500000000  0.8919594700000000  0.6865057200000000
  0.1684126300000000  0.0588609900000000  0.6861699700000000
  0.1588121500000000  0.3990551700000000  0.6891067500000000
  0.1627661100000000  0.7223676000000000  0.6896985200000000
  0.3390842000000000  0.5590409300000000  0.6866798700000000
  0.3379336300000000  0.8909762700000000  0.6876262600000002
  0.5075118199999999  0.0511225400000000  0.6899079800000000
  0.4979283300000000  0.3919277300000000  0.6869387300000001
  0.6683270000000000  0.5537348000000000  0.6853538900000001
  0.6728662800000000  0.8885040000000000  0.6873263000000001
  0.8359944800000000  0.0598186900000000  0.6840707000000000
  0.8319977000000000  0.3920193600000000  0.6842036300000000
  0.8309149900000000  0.7227901400000000  0.6874155800000000
  0.9874445200000000  0.2213907100000000  0.6857218300000000
  0.3259457100000000  0.2181223400000000  0.6906929300000000
  0.5054024300000000  0.7260919300000001  0.6823794399999999
  0.6653129000000000  0.2260988200000000  0.6880428500000000
  0.5008334000000000  0.5024103599999999  0.6227117200000000
  0.1588909200000000  0.1741571100000000  0.6242056000000000
  0.0110868900000000  0.0003778300000000  0.6235647200000000
  0.8333344700000000  0.8345254500000000  0.6239609800000000
  0.6724647100000000  0.6676387499999999  0.6221452000000000
  0.3284055600000000  0.3346856000000000  0.6287574500000001
  0.8247122099999999  0.1668203200000000  0.6224663400000000
  0.1673835600000000  0.5083868700000000  0.6261535400000000
  0.8349667000000000  0.5031918900000000  0.6214245400000000
  0.0029635000000000  0.3340769700000000  0.6254758600000000
  0.6692986399999999  0.3360811700000000  0.6261126299999999
  0.5045455300000000  0.1652846200000000  0.6267667700000000
  0.1619496800000000  0.8355411300000000  0.6278790100000000
  0.6676257799999999  0.0019038500000000  0.6231257700000000
  0.3349239300000000  0.6709562000000000  0.6241467000000001
  0.9984046799999999  0.6723658200000000  0.6257035800000000
  0.5011066100000000  0.8384999700000000  0.6244432400000000
  0.3364679800000000  0.0007438900000000  0.6274950300000000
