Mo  S  W 
 1.0000000000000000
     9.5549999999999997    0.0000000000000000    0.0000000000000000
     0.0000000000000000   16.5497450000000015    0.0000000000000000
     0.0000000000000000    0.0000000000000000   25.0000000000000000
  Mo   S   W
  18  72  18
Direct
  0.1698959100000000  0.0571118700000000  0.3752393300000000
  0.6797542200000000  0.5551539400000000  0.3707813600000000
  0.8353439100000000  0.3884828700000000  0.3752704400000000
  0.0041680300000000  0.2219119000000000  0.3778603700000000
  0.8345721900000000  0.0493781400000000  0.3770817000000000
  0.5068689900000000  0.3911968900000000  0.3689484900000000
  0.0085096500000000  0.8852670900000000  0.3752963700000000
  0.6664663500000000  0.8900323200000000  0.3706316200000000
  0.8433220400000000  0.7211602600000000  0.3723326100000000
  0.3389934300000000  0.5501476800000000  0.3711586900000000
  0.3392844800000000  0.8900874300000000  0.3718489800000000
  0.1686673900000000  0.3846586700000000  0.3763034299999999
  0.0012367200000000  0.5534331300000001  0.3737356300000000
  0.1802879500000000  0.7181215399999999  0.3675998300000000
  0.6615753300000000  0.2193730900000000  0.3753796599999999
  0.5137137100000000  0.0537530400000000  0.3742914100000000
  0.3337406200000000  0.2203238300000000  0.3736624800000000
  0.5043173000000000  0.7174857500000000  0.3691605200000000
  0.9959113400000001  0.3272356500000000  0.3141202500000000
  0.0128018800000000  0.6641071500000000  0.3058756200000000
  0.0031728400000000  0.9970164099999999  0.3136955700000000
  0.1599698400000000  0.1661970800000000  0.3100554600000000
  0.1683952800000000  0.4961413300000000  0.3116686100000000
  0.1725015700000000  0.8303271400000000  0.3066552600000000
  0.3322176100000000  0.3293377100000000  0.3124316900000000
  0.3474858900000000  0.6575912900000001  0.3044053800000000
  0.3361095800000000  0.0043325000000000  0.3122157600000000
  0.5029399000000000  0.1676216500000000  0.3106688600000000
  0.5124534200000000  0.5006696200000000  0.3091657300000000
  0.5083116200000000  0.8343652900000000  0.3109652200000000
  0.6736436099999999  0.3342948500000000  0.3077982500000000
  0.6843536800000000  0.6694156400000000  0.3065049900000000
  0.6755031800000000  0.0027819500000000  0.3098629700000000
  0.8350113200000000  0.1678926500000000  0.3138306700000000
  0.8388769900000000  0.4963756300000000  0.3102498300000000
  0.8381954200000001  0.8336932400000000  0.3083418400000000
  0.0113928200000000  0.6628596600000000  0.4344921300000000
  0.1713897900000000  0.1625926800000000  0.4416797600000000
  0.3420788400000000  0.3347783500000000  0.4363668500000000
  0.3349051000000000  0.6626816200000000  0.4306801100000000
  0.5045757300000000  0.1595235400000000  0.4375022600000000
  0.6591101100000000  0.3424392000000000  0.4348301200000000
  0.6728407300000000  0.6629799199999999  0.4347131800000000
  0.8348657900000001  0.1670106600000000  0.4364086000000000
  0.8367668100000000  0.8327383800000000  0.4344168700000000
  0.9962704800000001  0.3379866400000000  0.4397736300000000
  0.0082192400000000  0.9995041500000000  0.4390401199999999
  0.1738128100000000  0.4987201399999999  0.4348332500000000
  0.1748374200000000  0.8248501300000000  0.4320949599999999
  0.3303453800000000  0.0004084200000000  0.4325624600000000
  0.5082714600000000  0.4966968500000000  0.4370300000000000
  0.4954986200000001  0.8315569700000000  0.4338089100000000
  0.6767671600000000  0.9891365500000001  0.4384229100000001
  0.8296140100000000  0.4975394899999999  0.4363838700000000
  0.9889068199999999  0.2286045500000000  0.5613735200000000
  0.9903841000000000  0.5556777400000000  0.5672422700000000
  0.9966398000000000  0.8852441000000000  0.5653009600000000
  0.1646005200000000  0.0553890100000000  0.5616407900000000
  0.1617505300000000  0.3932067900000000  0.5639540900000000
  0.1558967900000000  0.7236219000000000  0.5652118800000000
  0.3252882300000000  0.2270969400000000  0.5629100100000000
  0.3237176200000000  0.5542044400000000  0.5623657600000000
  0.3236182400000000  0.8938617800000001  0.5642902800000000
  0.5074216000000000  0.0567853800000000  0.5633704300000000
  0.5028095800000000  0.3930245100000000  0.5619543800000000
  0.4969799300000000  0.7215395700000000  0.5580799000000000
  0.6575620800000000  0.2237668600000000  0.5627468200000000
  0.6718628300000000  0.5536318200000000  0.5651150100000000
  0.6684781200000000  0.8898915100000000  0.5616458600000001
  0.8350496100000000  0.0591634700000000  0.5621711200000000
  0.8272655700000000  0.3917963400000000  0.5624699700000000
  0.8362853900000000  0.7233766400000000  0.5661122000000000
  0.9968129999999999  0.5568195400000000  0.6930868499999999
  0.9971140600000000  0.8882635200000000  0.6932257200000000
  0.1690166600000000  0.0606324000000000  0.6888608699999998
  0.1667306700000000  0.3949713400000000  0.6886551500000000
  0.1683037500000000  0.7170536500000000  0.6894798400000000
  0.3381102100000000  0.5539319300000000  0.6872628900000000
  0.3265010700000000  0.8949580700000000  0.6887293600000000
  0.5110090500000000  0.0570123900000000  0.6862874600000000
  0.5060353200000000  0.3901290200000000  0.6913264499999999
  0.6627205900000001  0.5519414800000000  0.6888132600000000
  0.6495568100000000  0.8930926900000000  0.6906878600000000
  0.8347035000000000  0.0586927800000000  0.6889826600000000
  0.8289140100000000  0.3869884600000000  0.6903233700000000
  0.8255226400000000  0.7242851300000001  0.6911844200000000
  0.9965511399999999  0.2256475900000000  0.6863508100000000
  0.3217693600000000  0.2246967500000000  0.6857403399999999
  0.4987836299999999  0.7266691700000000  0.6853672100000000
  0.6603277700000000  0.2257877800000000  0.6893010700000000
  0.4940745100000000  0.4999655000000001  0.6225585400000000
  0.1617457200000000  0.1708650000000000  0.6215806600000000
  0.0050071300000000  0.0027524300000000  0.6271234600000000
  0.8197007300000000  0.8367354900000000  0.6291324300000000
  0.6659603900000000  0.6652600100000000  0.6255247700000000
  0.3381479500000000  0.3388760800000000  0.6266152200000000
  0.8272075100000000  0.1681023400000000  0.6258123600000000
  0.1616861300000000  0.5012003900000001  0.6270180400000001
  0.8311507400000000  0.4988681900000000  0.6290888000000000
  0.9975503999999999  0.3385730900000000  0.6274697800000000
  0.6663011500000000  0.3362207700000000  0.6268545200000000
  0.4881817600000000  0.1705539800000000  0.6249654200000000
  0.1586766100000000  0.8289577100000000  0.6275502800000000
  0.6705660400000000  0.0014446100000000  0.6245643400000001
  0.3322713100000000  0.6679105300000000  0.6242386200000000
  0.9949630200000000  0.6680316200000000  0.6312231800000000
  0.4933014500000000  0.8354132300000000  0.6224954400000000
  0.3370247200000000  0.0065419600000000  0.6265179600000000
