Mo  S  W 
 1.0000000000000000
     9.5549999999999997    0.0000000000000000    0.0000000000000000
     0.0000000000000000   16.5497450000000015    0.0000000000000000
     0.0000000000000000    0.0000000000000000   25.0000000000000000
  Mo   S   W
  18  72  18
Direct
  0.1721023100000000  0.0522501200000000  0.3752978100000000
  0.6682698400000000  0.5523639800000000  0.3676052200000000
  0.8385093199999999  0.3898336800000000  0.3731579800000000
  0.9944287100000000  0.2228360900000000  0.3731090900000000
  0.8352751400000000  0.0568138900000000  0.3736800100000000
  0.5034456899999999  0.3843025700000000  0.3750290700000000
  0.0077503700000000  0.8879498900000000  0.3699830800000000
  0.6754226900000000  0.8815273500000000  0.3738616700000000
  0.8344125100000001  0.7145645400000000  0.3682065999999999
  0.3328183200000000  0.5512730600000000  0.3704404500000000
  0.3388009300000000  0.8850055400000000  0.3737678600000000
  0.1721235400000000  0.3861008500000000  0.3739837500000000
  0.0062471400000000  0.5512363200000000  0.3709715600000000
  0.1716047800000000  0.7194833400000000  0.3732228300000000
  0.6753866600000000  0.2165607100000000  0.3766341500000000
  0.4988874600000000  0.0579051300000000  0.3768373300000000
  0.3382490500000000  0.2247213600000000  0.3751789400000000
  0.5018624200000000  0.7191778900000000  0.3694063200000000
  0.9951152000000000  0.3285657900000000  0.3085783800000000
  0.0178439600000000  0.6627150600000000  0.3076917700000000
  0.0033988300000000  0.0049368500000000  0.3121554700000000
  0.1618606800000000  0.1650719900000000  0.3155807100000000
  0.1730308800000000  0.4954960800000000  0.3059288500000000
  0.1765236300000000  0.8254162100000000  0.3098073400000000
  0.3367552100000000  0.3290695100000000  0.3130162700000000
  0.3384527600000000  0.6615063700000000  0.3087730300000000
  0.3312915800000000  0.9984496700000000  0.3129374000000000
  0.5052813600000000  0.1712497300000000  0.3096135100000000
  0.4980202600000000  0.4878224600000000  0.3114744000000000
  0.5156287600000000  0.8358492000000000  0.3123424900000000
  0.6735636699999999  0.3336631400000000  0.3103091000000000
  0.6685202700000000  0.6682053700000000  0.3032168400000000
  0.6610254100000000  0.9992756500000001  0.3163229100000000
  0.8270372000000000  0.1692965100000000  0.3090649100000000
  0.8373498600000000  0.4988068299999999  0.3102826800000000
  0.8445103700000000  0.8296058400000000  0.3065456500000000
  0.9943681599999999  0.6597027500000000  0.4340641000000000
  0.1689234800000000  0.1662849200000000  0.4356165000000000
  0.3326341100000000  0.3348472700000000  0.4422320800000000
  0.3351845200000000  0.6664163300000000  0.4327043400000000
  0.5080725900000000  0.1652399400000000  0.4391516300000000
  0.6711597000000000  0.3402483400000000  0.4373948700000000
  0.6641464400000000  0.6595742400000000  0.4323061100000000
  0.8429016600000000  0.1672566000000000  0.4370361000000000
  0.8493868600000000  0.8255483800000000  0.4350759700000000
  0.9957053700000000  0.3423516000000000  0.4372261600000000
  0.0013657900000000  0.9997689200000001  0.4385779499999999
  0.1730545100000000  0.4999701800000000  0.4341166400000000
  0.1617408300000000  0.8307253900000000  0.4346924400000000
  0.3257047900000000  0.9938675700000000  0.4376375900000000
  0.4993111900000000  0.4969558400000000  0.4349030800000000
  0.5019339000000000  0.8310883600000000  0.4362096500000000
  0.6751949200000000  0.9924921000000000  0.4372401399999999
  0.8275946500000000  0.4998749400000000  0.4332137200000000
  0.0012651300000000  0.2231599300000000  0.5599888900000000
  0.9978215699999999  0.5513250900000000  0.5666149500000000
  0.0024404400000000  0.8883068900000000  0.5627377000000000
  0.1549953100000000  0.0595905200000000  0.5648788100000000
  0.1503078200000000  0.3933790500000000  0.5594927700000000
  0.1547667300000000  0.7223789700000000  0.5627086700000000
  0.3366443700000000  0.2215738700000000  0.5624960200000000
  0.3376345200000000  0.5502557200000000  0.5667507300000000
  0.3354612300000000  0.8886873900000000  0.5625042600000000
  0.4953420400000000  0.0594119500000000  0.5630643500000000
  0.5026497300000000  0.3989172400000000  0.5654952500000000
  0.4914283900000000  0.7200520900000000  0.5618370700000000
  0.6738942400000000  0.2276833300000000  0.5633506800000000
  0.6758193900000000  0.5583658800000000  0.5699240500000000
  0.6682805200000000  0.8992224000000000  0.5649949000000000
  0.8247304000000000  0.0597406200000000  0.5654817200000000
  0.8271822000000000  0.3947147000000000  0.5643474500000000
  0.8281344000000000  0.7201885300000000  0.5656633400000000
  0.0032209200000000  0.5570251899999999  0.6937903899999999
  0.0065458600000000  0.8890814600000000  0.6896282300000000
  0.1642767100000000  0.0573790600000000  0.6891778600000000
  0.1600322100000000  0.3911925400000000  0.6876247599999999
  0.1556662300000000  0.7199282900000000  0.6865134899999999
  0.3374919400000000  0.5529307999999999  0.6901846700000001
  0.3326076300000000  0.8904715700000000  0.6856425100000000
  0.4880419899999999  0.0595389800000000  0.6879207900000001
  0.4903168300000000  0.3842711500000000  0.6880077000000000
  0.6710970400000000  0.5559178800000000  0.6943625900000001
  0.6707403300000000  0.8930133900000000  0.6892241699999999
  0.8287950900000000  0.0632718300000000  0.6904823300000001
  0.8328468400000000  0.3860154900000000  0.6890189000000000
  0.8309198500000000  0.7249819700000000  0.6896055000000000
  0.0035465600000000  0.2252518000000000  0.6890402600000001
  0.3354984500000000  0.2260659100000000  0.6849074600000000
  0.4853009100000000  0.7265902700000000  0.6865104399999999
  0.6719387600000000  0.2297399700000000  0.6896688799999999
  0.5053684899999999  0.5026885300000000  0.6286459500000000
  0.1689689300000000  0.1741634300000000  0.6249533800000000
  0.9984882300000000  0.0022546500000000  0.6282837800000000
  0.8400357100000001  0.8346487600000000  0.6253312100000000
  0.6594272300000000  0.6693351300000000  0.6289737100000000
  0.3219780900000000  0.3352872600000000  0.6204374700000000
  0.8376416500000001  0.1717267500000000  0.6257947500000000
  0.1690104200000000  0.4996182600000000  0.6273534100000000
  0.8363498400000000  0.5024412900000000  0.6303568800000000
  0.9984557600000001  0.3315080100000000  0.6241976800000000
  0.6659897500000000  0.3376949100000000  0.6263689300000000
  0.5069525100000000  0.1739983300000000  0.6244496300000000
  0.1654695100000000  0.8328256000000001  0.6231517600000001
  0.6551216700000000  0.0104964800000000  0.6287907000000000
  0.3215974700000000  0.6629185000000000  0.6250864300000000
  0.9898464000000000  0.6646412100000000  0.6278164600000000
  0.4981591000000000  0.8362080600000000  0.6242066300000000
  0.3231973700000000  0.0003466300000000  0.6256235200000000
