Mo  S  W 
 1.0000000000000000
     9.5549999999999997    0.0000000000000000    0.0000000000000000
     0.0000000000000000   16.5497450000000015    0.0000000000000000
     0.0000000000000000    0.0000000000000000   25.0000000000000000
  Mo   S   W
  18  72  18
Direct
  0.1798328100000000  0.0469596000000000  0.3760265000000000
  0.6737957600000000  0.5526336100000000  0.3763024900000000
  0.8407973900000000  0.3819008600000000  0.3762651500000000
  0.0061539400000000  0.2146773300000000  0.3758485700000000
  0.8397952600000000  0.0543402900000000  0.3759618100000000
  0.5038727300000000  0.3847879000000000  0.3756017000000000
  0.0006663600000000  0.8895152300000000  0.3743983200000000
  0.6732776700000001  0.8883601800000001  0.3726078800000000
  0.8377424300000001  0.7250158200000000  0.3738208800000000
  0.3397108100000000  0.5615144100000000  0.3708923900000000
  0.3472302100000000  0.8855730000000001  0.3721355900000000
  0.1726759000000000  0.3888673700000000  0.3728681500000001
  0.0119156800000000  0.5579467800000000  0.3720695000000000
  0.1680894000000000  0.7278861200000000  0.3755032800000000
  0.6758704900000000  0.2140523800000000  0.3743804600000000
  0.4953542400000000  0.0526809300000000  0.3718989600000000
  0.3383826000000000  0.2229290700000000  0.3746461400000001
  0.5087384700000001  0.7256682200000000  0.3716169200000000
  0.9990243000000000  0.3302150400000000  0.3138073900000000
  0.0029595500000000  0.6714264400000000  0.3089471000000000
  0.0082147700000000  0.9988139199999999  0.3110478900000000
  0.1777561600000000  0.1628025700000000  0.3123692100000000
  0.1765798200000000  0.5056387500000000  0.3095245200000000
  0.1578719300000000  0.8333099000000000  0.3097638400000000
  0.3394824400000000  0.3300848800000000  0.3103475700000000
  0.3290186500000000  0.6803022700000000  0.3095735700000000
  0.3265659000000000  0.9924565999999999  0.3092061600000000
  0.5067628100000000  0.1626683900000000  0.3118627100000000
  0.5082842800000000  0.4977656600000001  0.3147004800000000
  0.5143363700000000  0.8355650800000000  0.3095588300000000
  0.6656224400000000  0.3333959600000000  0.3108705500000000
  0.6732425200000000  0.6612409500000000  0.3103848000000000
  0.6769670600000000  0.0001827000000000  0.3129224900000000
  0.8503821900000000  0.1650212600000000  0.3089693900000000
  0.8314697300000000  0.4959333799999999  0.3130438200000000
  0.8332931700000000  0.8339732800000000  0.3070828500000000
  0.0066415300000000  0.6663233100000000  0.4369540300000000
  0.1676843200000000  0.1555462800000000  0.4413696400000000
  0.3245948100000000  0.3323817100000000  0.4363901700000000
  0.3420710500000000  0.6707724000000000  0.4334981100000000
  0.5074725400000000  0.1631127100000000  0.4362332900000000
  0.6781993500000000  0.3333369000000000  0.4379584700000000
  0.6766376200000001  0.6682502400000000  0.4376974100000000
  0.8360687100000000  0.1639547700000000  0.4386851800000000
  0.8455289600000000  0.8367017400000000  0.4369895800000000
  0.0097133200000000  0.3278975100000000  0.4376274999999999
  0.0070264100000000  0.9985246500000001  0.4368733000000000
  0.1835169900000000  0.5040361500000000  0.4340298100000000
  0.1749871700000000  0.8341667600000000  0.4341248200000000
  0.3342330000000000  0.9920622499999999  0.4347271300000000
  0.4998155699999999  0.4984298500000001  0.4409341899999999
  0.5087847900000000  0.8354227700000000  0.4374493000000000
  0.6665338500000000  0.9999251400000000  0.4332475100000000
  0.8461893800000001  0.5003020700000000  0.4325288000000000
  0.0012339100000000  0.2247900900000000  0.5647028500000000
  0.9903140600000000  0.5572258600000000  0.5622001100000000
  0.0019004800000000  0.8882928700000000  0.5609366099999999
  0.1611870400000000  0.0558789900000000  0.5602417100000000
  0.1638088900000000  0.3943377200000000  0.5645767800000000
  0.1685087300000000  0.7325381500000000  0.5658809800000000
  0.3181758100000000  0.2187044400000000  0.5658371400000000
  0.3284030700000000  0.5624056600000000  0.5626937000000000
  0.3334772300000000  0.8879702100000000  0.5633119599999999
  0.5014539500000000  0.0514243900000000  0.5620747000000000
  0.4886898800000000  0.3882859400000000  0.5647394000000000
  0.4918871500000001  0.7272858700000000  0.5602482000000000
  0.6599719400000000  0.2206793800000000  0.5600959400000000
  0.6526945100000000  0.5571397900000000  0.5600117500000000
  0.6727244999999999  0.8833001800000000  0.5631760700000000
  0.8242849500000000  0.0575987700000000  0.5598757300000000
  0.8251210300000000  0.3897207500000000  0.5609603300000000
  0.8368437500000000  0.7224067199999999  0.5614939400000000
  0.9924887199999999  0.5592262800000000  0.6860988899999999
  0.9917906500000001  0.8913567400000000  0.6923352200000000
  0.1607464100000000  0.0514371800000000  0.6873603700000001
  0.1622279200000000  0.3943281800000000  0.6874305700000000
  0.1669659700000000  0.7280007800000000  0.6886417900000000
  0.3310551300000000  0.5571803400000001  0.6884360900000001
  0.3294898400000000  0.8997015400000000  0.6934347300000000
  0.5012290400000000  0.0514137100000000  0.6839953200000000
  0.5022928000000000  0.3911705300000000  0.6900055400000000
  0.6651162600000000  0.5572456000000000  0.6867469899999999
  0.6599796400000000  0.8898247700000000  0.6902103500000000
  0.8267427500000000  0.0554430600000000  0.6864702200000000
  0.8217817600000000  0.3920731800000000  0.6843230500000000
  0.8362516400000000  0.7211087700000000  0.6875480899999999
  0.9875668000000000  0.2237528600000000  0.6904717300000001
  0.3358854300000000  0.2166813700000000  0.6884234299999999
  0.5045486500000000  0.7225386400000000  0.6906742600000000
  0.6671353400000000  0.2226794700000000  0.6891226600000000
  0.4928575900000000  0.5052237400000000  0.6239263900000001
  0.1614155400000000  0.1661027300000000  0.6287258300000000
  0.9957077300000001  0.0021421500000000  0.6233560100000000
  0.8281302500000000  0.8318354200000000  0.6257892700000000
  0.6629188300000000  0.6691220000000000  0.6243004200000000
  0.3311811800000000  0.3321888400000000  0.6282557600000001
  0.8274055800000000  0.1659390500000000  0.6246132400000000
  0.1618264900000000  0.5050865200000000  0.6250789300000000
  0.8186271600000000  0.5051747200000000  0.6217371500000000
  0.9988786200000001  0.3351323500000000  0.6286327000000000
  0.6634439900000000  0.3312726100000000  0.6255113900000000
  0.4963416000000000  0.1654633300000000  0.6248164300000000
  0.1624428600000000  0.8427912700000000  0.6289467100000000
  0.6643062600000000  0.9970994100000000  0.6228387100000000
  0.3350288700000000  0.6730335900000000  0.6277251900000000
  0.0035487800000000  0.6717861100000000  0.6254280700000000
  0.4952348799999999  0.8327100400000000  0.6289863500000000
  0.3312348100000000  0.9977404000000001  0.6230195200000000
