Mo  S  W 
 1.0000000000000000
     9.5549999999999997    0.0000000000000000    0.0000000000000000
     0.0000000000000000   16.5497450000000015    0.0000000000000000
     0.0000000000000000    0.0000000000000000   25.0000000000000000
  Mo   S   W
  18  72  18
Direct
  0.1619044100000000  0.0487687300000000  0.3811119200000000
  0.6595734900000000  0.5595322600000000  0.3721794200000000
  0.8373599500000001  0.3851714700000000  0.3779733700000000
  0.9958624600000000  0.2171915700000000  0.3790393400000000
  0.8345113199999999  0.0566076300000000  0.3786252800000000
  0.4907321900000000  0.3886738100000000  0.3786766600000000
  0.9921522000000000  0.8900288000000000  0.3759930600000000
  0.6597894600000000  0.8927193900000000  0.3757263200000000
  0.8229645900000000  0.7254837700000000  0.3751974700000000
  0.3284949700000000  0.5612084400000000  0.3730623000000000
  0.3197786800000000  0.8835641400000001  0.3754305400000000
  0.1617203400000000  0.3889375800000000  0.3763004600000000
  0.9957969200000000  0.5599998200000000  0.3729226800000000
  0.1561863100000000  0.7263041500000000  0.3730341700000001
  0.6635017300000000  0.2205902400000000  0.3810658200000001
  0.4949823400000000  0.0553692800000000  0.3757004500000000
  0.3313934800000000  0.2201608000000000  0.3788325300000001
  0.5001726700000000  0.7281780000000000  0.3725938400000001
  0.9975163100000000  0.3209114600000000  0.3121424800000000
  0.9938208700000000  0.6753912700000000  0.3116813100000000
  0.0013859100000000  0.0029179300000000  0.3184973500000000
  0.1683153500000000  0.1611131400000000  0.3225683800000000
  0.1616562400000000  0.5046742500000000  0.3114608300000000
  0.1468543900000000  0.8340990700000001  0.3123617700000000
  0.3199012300000000  0.3320875700000000  0.3189477900000000
  0.3254370400000000  0.6721340600000000  0.3100400200000000
  0.3264242800000000  0.9940683399999999  0.3135553500000000
  0.4987640800000001  0.1705484100000000  0.3098969200000000
  0.4907724100000000  0.4999531199999999  0.3126803400000000
  0.4926280500000000  0.8394176700000000  0.3085581100000000
  0.6603016700000000  0.3237473400000000  0.3176949800000000
  0.6668896300000000  0.6648179100000000  0.3105469000000000
  0.6637796300000000  0.0016481600000000  0.3137184000000000
  0.8302670700000000  0.1654288700000000  0.3175261800000000
  0.8342308899999999  0.4942631300000000  0.3170998100000000
  0.8229816000000000  0.8358355500000000  0.3158925000000000
  0.9958297300000000  0.6698585300000000  0.4319687899999999
  0.1674999900000000  0.1607311600000000  0.4404935500000000
  0.3244823400000000  0.3360923800000000  0.4429290400000000
  0.3318123600000000  0.6724904200000000  0.4349953300000000
  0.4836989600000000  0.1633259100000000  0.4386635700000000
  0.6608532800000000  0.3340028100000000  0.4398480900000001
  0.6617937100000000  0.6621398100000000  0.4369083900000000
  0.8285618300000001  0.1621800200000000  0.4399714100000000
  0.8235075600000000  0.8406570000000000  0.4385279800000000
  0.9968840200000000  0.3339489000000000  0.4393625600000000
  0.9888452800000000  0.9970305700000001  0.4452257800000000
  0.1563459100000000  0.5018798400000000  0.4358494800000001
  0.1519782500000000  0.8338510500000000  0.4402453200000000
  0.3436202000000000  0.9932106599999999  0.4403177800000000
  0.4951991300000000  0.5037521100000000  0.4332602700000001
  0.4924875300000000  0.8367157200000001  0.4374552100000000
  0.6570667600000000  0.9998213899999999  0.4384621300000000
  0.8275193800000000  0.5013492600000000  0.4359520000000000
  0.0137919500000000  0.2237577800000000  0.5599000200000001
  0.0066795400000000  0.5524483900000000  0.5642545400000000
  0.0026963500000000  0.8888598500000000  0.5611704600000000
  0.1711040900000000  0.0539864500000000  0.5659474799999999
  0.1760402000000000  0.3919852500000000  0.5574536600000000
  0.1735108100000000  0.7114666800000000  0.5627708300000001
  0.3423069800000000  0.2238695700000000  0.5590691800000001
  0.3395428200000000  0.5498540100000000  0.5629053300000000
  0.3291921400000000  0.8937144000000000  0.5649085400000000
  0.4863775000000001  0.0610328500000000  0.5581509099999999
  0.4944623600000000  0.3899611200000000  0.5628383200000000
  0.4975217299999999  0.7191851200000000  0.5595299100000000
  0.6722442300000000  0.2235601300000000  0.5591045100000001
  0.6731059000000000  0.5533658800000000  0.5614558600000000
  0.6675853000000000  0.8933932500000000  0.5618242400000000
  0.8416455300000000  0.0577249100000000  0.5624461100000000
  0.8403556099999999  0.3925622300000000  0.5612896800000000
  0.8324260300000000  0.7213033300000000  0.5606507300000000
  0.0021963400000000  0.5511321300000001  0.6918054900000000
  0.0075505300000000  0.8847356900000000  0.6832271000000000
  0.1665738500000000  0.0563005200000000  0.6879814300000000
  0.1645668100000000  0.3891632100000000  0.6879552700000001
  0.1672729300000000  0.7165262300000000  0.6897137900000000
  0.3444246000000000  0.5528034700000000  0.6888716200000000
  0.3447266700000000  0.8848638100000000  0.6875454200000000
  0.5051693000000000  0.0621907500000000  0.6913038500000001
  0.5049522200000000  0.3886318700000000  0.6860897700000002
  0.6698261700000000  0.5639837400000000  0.6889317700000001
  0.6760539100000000  0.8887997800000000  0.6834170300000000
  0.8288375300000000  0.0604086200000000  0.6855044600000000
  0.8390299500000000  0.3834444200000000  0.6852892700000000
  0.8300252600000000  0.7230330700000001  0.6845458499999999
  0.0034939700000000  0.2230232300000000  0.6850534400000001
  0.3372660800000000  0.2244886500000000  0.6858638700000000
  0.4981542500000000  0.7250428700000000  0.6841444000000000
  0.6735361500000000  0.2294849300000000  0.6851659200000000
  0.5083850200000000  0.4996751000000000  0.6263067700000000
  0.1738998800000000  0.1705982100000000  0.6238508800000000
  0.0069135200000000  0.9984990200000000  0.6257385400000000
  0.8408218000000000  0.8342358300000000  0.6214932600000000
  0.6719615500000000  0.6685886599999999  0.6219965300000000
  0.3303560300000000  0.3380077700000000  0.6240485800000000
  0.8320721400000000  0.1685778600000000  0.6213312000000000
  0.1743275900000000  0.4963994900000000  0.6265302699999999
  0.8357172100000000  0.5002866500000001  0.6276040200000000
  0.0063094200000000  0.3348573100000000  0.6207441900000000
  0.6708554100000000  0.3349752300000000  0.6212374100000000
  0.5069861500000000  0.1733584500000000  0.6235616899999999
  0.1710121000000000  0.8307461500000000  0.6234596800000000
  0.6592104100000000  0.0085432400000000  0.6238947000000000
  0.3332152100000000  0.6600760900000000  0.6260117100000000
  0.9989871099999998  0.6617267500000000  0.6267591000000000
  0.5034909000000000  0.8365396200000000  0.6203708800000000
  0.3390453600000000  0.9987407000000000  0.6273017500000000
