Mo  S  W 
 1.0000000000000000
     9.5549999999999997    0.0000000000000000    0.0000000000000000
     0.0000000000000000   16.5497450000000015    0.0000000000000000
     0.0000000000000000    0.0000000000000000   25.0000000000000000
  Mo   S   W
  18  72  18
Direct
  0.1581936800000000  0.0590834400000000  0.3731275400000000
  0.6616940500000000  0.5501758500000000  0.3769731300000000
  0.8362255500000000  0.3931768700000000  0.3776781299999999
  0.9987368000000000  0.2246866200000000  0.3758349000000000
  0.8323652300000000  0.0533194400000000  0.3770299300000000
  0.4987044400000001  0.3873122300000000  0.3721690700000000
  0.0016204200000000  0.8858771800000000  0.3758725200000000
  0.6679115100000000  0.8862148399999999  0.3782500499999999
  0.8404521700000002  0.7145484700000000  0.3784650600000001
  0.3342241800000000  0.5476208100000000  0.3767108400000000
  0.3373183300000000  0.8883070600000000  0.3741806500000000
  0.1618939800000000  0.3826967500000000  0.3752012800000000
  0.0009098300000000  0.5504171000000000  0.3815235500000000
  0.1623058200000000  0.7132819700000000  0.3803097700000000
  0.6644561400000000  0.2246443000000000  0.3707033800000000
  0.4926865400000000  0.0517129000000000  0.3712849300000000
  0.3330128800000000  0.2213583800000000  0.3717825500000000
  0.4927816700000000  0.7188668700000000  0.3741769000000000
  0.9945127499999999  0.3338578000000000  0.3153082000000000
  0.0062639900000000  0.6624183300000001  0.3162139100000000
  0.9920628900000000  0.9928110999999999  0.3116100000000000
  0.1583127400000000  0.1710947700000000  0.3066086900000000
  0.1574637000000000  0.4898108400000000  0.3176961200000000
  0.1721690900000000  0.8251527800000000  0.3142745800000000
  0.3321444100000000  0.3341799300000000  0.3093512600000000
  0.3212167900000000  0.6566525500000000  0.3155572600000000
  0.3282832400000000  0.9993645000000000  0.3127889200000000
  0.4963120699999999  0.1658025900000000  0.3123845300000000
  0.5055321699999999  0.4998632500000000  0.3104082600000000
  0.5056297400000000  0.8314334600000000  0.3168123600000000
  0.6792504400000000  0.3327578700000000  0.3103063800000000
  0.6732646400000000  0.6603743000000000  0.3141091400000000
  0.6671645600000000  0.9975129200000000  0.3162541400000000
  0.8319968400000000  0.1603562600000000  0.3113865400000000
  0.8391279400000000  0.5041989200000000  0.3130077100000000
  0.8328051200000000  0.8268618700000000  0.3153855000000000
  0.9973786400000000  0.6605321300000000  0.4468032500000000
  0.1688204800000000  0.1729667100000000  0.4373140000000000
  0.3392215600000000  0.3325611800000000  0.4332681600000000
  0.3232796900000000  0.6586800700000000  0.4400719400000000
  0.5004237800000000  0.1638458100000000  0.4332042700000000
  0.6629322200000000  0.3293349900000000  0.4349346000000000
  0.6533440600000000  0.6567985100000000  0.4373177400000000
  0.8427850499999999  0.1668953200000000  0.4385231600000000
  0.8374186400000001  0.8294566200000000  0.4390060200000000
  0.0014118900000000  0.3336110000000000  0.4397397000000000
  0.0036523400000000  0.0010837800000000  0.4363665900000000
  0.1700145300000000  0.4926818700000000  0.4396590400000000
  0.1622607800000000  0.8341279200000000  0.4387469800000000
  0.3250194200000000  0.0041106000000000  0.4341186200000000
  0.4970373100000000  0.4954541000000000  0.4431687799999999
  0.4920210600000000  0.8296041000000000  0.4423049299999999
  0.6657527800000000  0.9985937800000001  0.4380395000000000
  0.8267499300000000  0.5024703500000000  0.4418414400000000
  0.0017456100000000  0.2250759100000000  0.5609768900000000
  0.0081860700000000  0.5587036300000000  0.5642287400000000
  0.0110130600000000  0.8935455700000000  0.5588824999999999
  0.1683387900000000  0.0570944900000000  0.5617214400000000
  0.1663937800000000  0.3922645300000000  0.5653861300000000
  0.1608864200000000  0.7201441500000000  0.5655679000000000
  0.3311059300000000  0.2259303700000000  0.5627549900000000
  0.3302158200000000  0.5586212900000000  0.5597453600000000
  0.3317414700000000  0.8946685300000000  0.5608781800000000
  0.4941159200000000  0.0584525200000000  0.5667161400000000
  0.4895269700000000  0.3901345000000000  0.5616231300000000
  0.4970510100000000  0.7243121300000001  0.5597304400000001
  0.6601763500000000  0.2262054200000000  0.5600799500000000
  0.6718902100000000  0.5570956100000000  0.5593947400000000
  0.6796959299999999  0.8885044500000000  0.5604210100000000
  0.8397762800000000  0.0549774700000000  0.5617037499999999
  0.8306507900000000  0.3896660900000000  0.5610543600000000
  0.8280452700000001  0.7242831300000000  0.5595778000000000
  0.0009866700000000  0.5580318900000000  0.6883632500000000
  0.0016686500000000  0.8884918500000000  0.6902165800000000
  0.1635386300000000  0.0610387300000000  0.6888020100000000
  0.1614769900000000  0.3926691200000000  0.6859565499999999
  0.1737687000000000  0.7194500700000001  0.6892384700000000
  0.3476693200000000  0.5585846600000000  0.6864658600000000
  0.3321926300000000  0.8884927200000000  0.6928637500000001
  0.5047957700000000  0.0584160300000000  0.6871363900000000
  0.4977739800000000  0.3901537300000000  0.6886330000000001
  0.6716079800000000  0.5563068200000000  0.6834457100000000
  0.6638646700000000  0.8911922900000000  0.6851900300000000
  0.8395800099999999  0.0591969100000000  0.6872595600000000
  0.8361226600000000  0.3917855800000000  0.6880943300000000
  0.8214536099999999  0.7252762300000000  0.6872392800000000
  0.9957677300000001  0.2248996000000000  0.6889308900000001
  0.3324537300000000  0.2226050900000000  0.6867608700000000
  0.5019917000000000  0.7233698400000000  0.6839956600000001
  0.6756215400000000  0.2235490000000000  0.6880647200000000
  0.5067110900000000  0.5033444400000000  0.6229946200000001
  0.1614764600000000  0.1731514700000000  0.6249379100000000
  0.0061882900000000  0.0022027700000000  0.6251659100000000
  0.8393051300000000  0.8358951800000000  0.6235242500000000
  0.6669433299999999  0.6667814300000000  0.6204322799999999
  0.3266347000000000  0.3370172200000000  0.6253288900000000
  0.8351562200000000  0.1701156400000000  0.6218605699999999
  0.1696162000000000  0.5052451100000001  0.6265855600000000
  0.8405761400000000  0.5027304400000000  0.6235291100000000
  0.9944368599999999  0.3330890300000000  0.6239820500000000
  0.6656091700000000  0.3352277100000000  0.6253139400000000
  0.4997025700000000  0.1703262300000000  0.6268920400000000
  0.1694191200000000  0.8321681200000000  0.6273329000000000
  0.6686741500000000  0.0049477700000000  0.6249482200000001
  0.3326312000000000  0.6682010600000000  0.6210719400000000
  0.9956612200000000  0.6684522400000000  0.6258942600000000
  0.5025247500000000  0.8366261400000000  0.6211727200000000
  0.3339762900000000  0.0021887800000000  0.6263092800000000
