Mo  S  W 
 1.0000000000000000
     9.5549999999999997    0.0000000000000000    0.0000000000000000
     0.0000000000000000   16.5497450000000015    0.0000000000000000
     0.0000000000000000    0.0000000000000000   25.0000000000000000
  Mo   S   W
  18  72  18
Direct
  0.1730459700000000  0.0521233200000000  0.3728473600000000
  0.6698361500000000  0.5506632600000000  0.3754911000000000
  0.8335694000000000  0.3782020100000000  0.3722202700000000
  0.0153221200000000  0.2124749500000000  0.3724525400000001
  0.8383550000000001  0.0499157200000000  0.3731557500000000
  0.5046222400000000  0.3902816500000000  0.3740324700000000
  0.9952150200000000  0.8838319700000000  0.3754182600000000
  0.6600408900000000  0.8899480400000001  0.3723304000000000
  0.8287190700000000  0.7250876300000000  0.3728722000000000
  0.3351285800000000  0.5578614100000000  0.3736630200000001
  0.3363744000000000  0.8864713300000000  0.3763807300000000
  0.1695548900000000  0.3887201900000000  0.3724188200000000
  0.9973052000000000  0.5573210700000000  0.3684866299999999
  0.1643201200000000  0.7250042600000000  0.3719758300000000
  0.6705387400000000  0.2161693400000000  0.3750351000000000
  0.5073905700000000  0.0482131000000000  0.3759208700000000
  0.3304824400000000  0.2137091400000000  0.3768821100000000
  0.5014822700000000  0.7199439000000000  0.3749179400000000
  0.0025241500000000  0.3221092600000000  0.3076232700000000
  0.9934872600000000  0.6688022600000000  0.3067790100000000
  0.0045164700000000  0.9959120500000002  0.3145973600000000
  0.1696459600000000  0.1592603600000000  0.3114268800000000
  0.1743709900000000  0.5049390000000000  0.3058568600000000
  0.1686628300000000  0.8337390800000000  0.3141589200000000
  0.3375127900000000  0.3230618500000000  0.3157424800000000
  0.3349579900000000  0.6677937700000000  0.3109769000000000
  0.3311906800000000  0.9948509700000000  0.3110580000000000
  0.5037199800000000  0.1593972400000000  0.3092702000000000
  0.4989483900000000  0.4987149700000000  0.3135190000000000
  0.5012000700000000  0.8326334600000000  0.3103568000000000
  0.6624445100000000  0.3331732700000000  0.3080153900000000
  0.6682000100000000  0.6680576400000000  0.3125661900000000
  0.6686734200000000  0.9995654100000000  0.3092966500000000
  0.8348091900000000  0.1665289900000000  0.3127256500000000
  0.8260091400000000  0.4928402300000000  0.3145488300000000
  0.8296643000000000  0.8354035600000000  0.3098724100000000
  0.9954058500000000  0.6680040699999999  0.4321336199999999
  0.1733341700000000  0.1563693700000000  0.4385681900000000
  0.3327448200000000  0.3344889000000000  0.4398390400000000
  0.3295481200000000  0.6731527899999999  0.4343437800000000
  0.5066890800000000  0.1588134300000000  0.4364860600000000
  0.6613513300000000  0.3372408700000000  0.4367865900000000
  0.6747026400000000  0.6650562600000000  0.4369364100000000
  0.8425589800000000  0.1632895200000000  0.4327535100000000
  0.8188304500000000  0.8370693900000000  0.4390890500000000
  0.0020000000000000  0.3337508600000000  0.4346399300000000
  0.0075377200000000  0.9926850000000000  0.4395579700000000
  0.1633900000000000  0.5042627000000000  0.4312634100000000
  0.1679192100000000  0.8308818800000000  0.4367668800000001
  0.3284232700000000  0.9959321000000001  0.4389905200000000
  0.4990649000000000  0.4997148100000000  0.4362582200000000
  0.5054479700000000  0.8361466000000000  0.4364836000000000
  0.6764103600000000  0.9970780600000000  0.4394055700000001
  0.8409829300000001  0.4909641200000000  0.4340892300000000
  0.0037209800000000  0.2245416500000000  0.5645396700000000
  0.9977165400000000  0.5568382500000000  0.5606177900000000
  0.9936660000000000  0.8864058000000000  0.5636408000000001
  0.1617649700000000  0.0560151100000000  0.5625962200000000
  0.1691251300000000  0.3878383600000000  0.5627886200000000
  0.1801037900000000  0.7324836200000000  0.5620442600000000
  0.3301460800000000  0.2220798100000000  0.5650172800000000
  0.3321797500000000  0.5613635900000000  0.5671806400000000
  0.3394479900000000  0.8900323100000000  0.5655374200000000
  0.5060074400000000  0.0565221000000000  0.5598315400000000
  0.5064489900000000  0.3962213400000000  0.5663465300000000
  0.5010057600000000  0.7245067600000000  0.5639306600000000
  0.6663269900000000  0.2201268500000000  0.5656861500000000
  0.6599167900000000  0.5607754500000000  0.5659333300000000
  0.6524339800000000  0.8891233900000000  0.5637855300000000
  0.8233580600000000  0.0598477400000000  0.5607986400000000
  0.8291883500000000  0.3909528900000000  0.5627971300000000
  0.8358045800000000  0.7251748300000000  0.5636706100000000
  0.9936716400000001  0.5605149699999999  0.6857532200000001
  0.9956798300000000  0.8956633400000000  0.6849306700000000
  0.1624606300000000  0.0482213100000000  0.6869973999999999
  0.1674538000000000  0.3965470000000000  0.6888027500000000
  0.1584319500000000  0.7294068300000000  0.6869038300000000
  0.3225795700000000  0.5580675100000000  0.6884588000000000
  0.3323334500000000  0.8961361600000000  0.6856818800000000
  0.5041987200000000  0.0513854500000000  0.6866063000000000
  0.5064721100000000  0.3897700800000000  0.6902895600000000
  0.6637331400000001  0.5557471600000000  0.6899156500000000
  0.6732827200000000  0.8877355099999999  0.6915566600000002
  0.8273071600000000  0.0579095800000000  0.6879727600000000
  0.8267982699999999  0.3918266800000000  0.6862351900000000
  0.8432581700000000  0.7239197800000000  0.6859927600000000
  0.0027788500000000  0.2239661700000000  0.6873434899999999
  0.3292447900000000  0.2181280300000000  0.6898817100000000
  0.5049413200000000  0.7256447400000000  0.6921278000000000
  0.6611383000000000  0.2234504700000000  0.6874597900000000
  0.4908964200000000  0.5040707700000000  0.6273527600000000
  0.1691769400000000  0.1621473500000000  0.6265672100000000
  0.9912847100000001  0.0036804700000000  0.6226758999999999
  0.8278562800000000  0.8366954700000000  0.6251210400000000
  0.6657314900000000  0.6712437700000000  0.6276363400000000
  0.3451250600000000  0.3346453200000000  0.6279196800000000
  0.8340175600000000  0.1669247600000000  0.6261194800000000
  0.1639311100000000  0.5019459600000000  0.6233349300000000
  0.8265035800000000  0.5044627600000000  0.6230375600000000
  0.0003959800000000  0.3388664900000000  0.6260706700000001
  0.6663810600000000  0.3343315800000000  0.6250574100000000
  0.4944960799999999  0.1671558300000000  0.6249950399999999
  0.1672563500000000  0.8406056300000000  0.6241634600000000
  0.6683349600000000  0.9962857000000001  0.6243037800000000
  0.3382672900000000  0.6743531500000000  0.6301793000000000
  0.0048147200000000  0.6727406900000000  0.6225777800000000
  0.4962632100000000  0.8344622800000000  0.6303319400000000
  0.3327564600000000  0.0023855700000000  0.6247028700000000
