Mo  S  W 
 1.0000000000000000
     9.5549999999999997    0.0000000000000000    0.0000000000000000
     0.0000000000000000   16.5497450000000015    0.0000000000000000
     0.0000000000000000    0.0000000000000000   25.0000000000000000
  Mo   S   W
  18  72  18
Direct
  0.1661531800000000  0.0533596000000000  0.3748761500000001
  0.6806818400000000  0.5564817200000000  0.3736238199999999
  0.8390173000000000  0.3875273300000000  0.3753601000000000
  0.0005909300000000  0.2221787400000000  0.3787926400000000
  0.8381547800000001  0.0489921400000000  0.3776426000000000
  0.5007820500000000  0.3908923400000000  0.3695610400000000
  0.0105354000000000  0.8853703000000001  0.3764854900000000
  0.6719878400000000  0.8910554600000000  0.3707643600000000
  0.8427080700000000  0.7238614500000000  0.3732290200000000
  0.3382958900000000  0.5529049900000000  0.3715205200000000
  0.3340830800000000  0.8899387400000000  0.3717688000000001
  0.1663954100000000  0.3851320500000000  0.3747077700000000
  0.0032915200000000  0.5557056700000000  0.3726951300000000
  0.1795905600000000  0.7187950500000000  0.3679463900000000
  0.6601838100000000  0.2185952100000000  0.3736761300000000
  0.5095339500000000  0.0538851500000000  0.3730547500000000
  0.3393776600000000  0.2183786600000000  0.3747874800000000
  0.5065383200000000  0.7208497100000000  0.3689856200000000
  0.0025628200000000  0.3222291000000000  0.3140620200000000
  0.0097757300000000  0.6655655600000000  0.3061880200000000
  0.0008391900000000  0.0011797200000000  0.3125064900000000
  0.1639122300000000  0.1633272100000000  0.3100396500000000
  0.1715765100000000  0.4959462800000001  0.3111253000000000
  0.1737911300000000  0.8301330500000000  0.3065707000000000
  0.3276947300000000  0.3303320600000000  0.3159428600000000
  0.3527452100000000  0.6580166000000000  0.3049828000000000
  0.3453469400000000  0.0024031100000000  0.3115124700000000
  0.5013280100000000  0.1692476000000000  0.3113377200000000
  0.5117478400000000  0.5019527400000000  0.3078383700000000
  0.5068387700000000  0.8332192600000000  0.3095336100000000
  0.6775055100000000  0.3304077100000000  0.3127071400000000
  0.6824568000000000  0.6681428600000000  0.3090590200000000
  0.6714173700000000  0.0021709400000000  0.3108443800000000
  0.8338137100000000  0.1654678900000000  0.3134643900000000
  0.8457169300000001  0.4935852700000000  0.3117159300000000
  0.8400643300000000  0.8329574500000000  0.3109303000000000
  0.0029797200000000  0.6655465500000000  0.4339466000000000
  0.1808195200000000  0.1603346600000000  0.4397235500000000
  0.3458451500000000  0.3366809500000000  0.4369942800000001
  0.3388900600000000  0.6675756900000001  0.4318358700000000
  0.5051550100000000  0.1597964500000000  0.4360465600000001
  0.6538922100000000  0.3364604600000000  0.4318141699999999
  0.6697507700000001  0.6642928600000000  0.4337683700000000
  0.8397959900000002  0.1646114300000000  0.4374580000000000
  0.8323138400000000  0.8318726800000000  0.4325616200000000
  0.9991199900000000  0.3360229600000000  0.4374211200000000
  0.0097653700000000  0.0012477300000000  0.4390418300000000
  0.1700482000000000  0.5016565200000001  0.4321793400000000
  0.1675610000000000  0.8286266600000000  0.4348955200000000
  0.3392362300000000  0.9985027800000001  0.4323573200000000
  0.5041350100000001  0.4977682900000000  0.4341556100000000
  0.4960878200000000  0.8309426600000001  0.4326572400000000
  0.6748858300000000  0.9908745300000001  0.4379723999999999
  0.8406656800000000  0.4934147400000000  0.4394225300000000
  0.9861457100000000  0.2287781500000000  0.5618012500000000
  0.9943099399999999  0.5597131800000000  0.5656819600000000
  0.9922095800000001  0.8837577800000000  0.5653874700000000
  0.1666915400000000  0.0561989400000000  0.5623687000000001
  0.1657203500000000  0.3889181800000000  0.5663789000000000
  0.1591586200000000  0.7271153600000000  0.5658743800000000
  0.3303579300000000  0.2286587000000000  0.5625696300000000
  0.3211033200000000  0.5563405500000000  0.5603029300000000
  0.3214198700000000  0.8918869100000000  0.5622756500000000
  0.5069820700000000  0.0577118300000000  0.5633978100000000
  0.5083308800000000  0.3923308700000000  0.5593320500000000
  0.5008431500000000  0.7222281400000000  0.5594934700000000
  0.6577805400000000  0.2226583000000000  0.5619666400000000
  0.6712055400000000  0.5562041000000000  0.5626558600000000
  0.6533421200000000  0.8886595200000000  0.5622802800000000
  0.8385222400000000  0.0579289900000000  0.5611379200000000
  0.8311098600000000  0.3887722600000000  0.5631104600000000
  0.8395043499999999  0.7236996000000000  0.5655162500000001
  0.9917313599999998  0.5568034100000000  0.6903284600000000
  0.9909196100000000  0.8927747700000001  0.6931714200000001
  0.1717808200000000  0.0571178300000000  0.6908213200000000
  0.1712151800000000  0.3934989400000000  0.6886457000000000
  0.1681847500000000  0.7195627900000000  0.6899039200000000
  0.3340328600000000  0.5566785900000000  0.6882554600000000
  0.3286029100000000  0.8927472000000000  0.6913044400000000
  0.5109508699999999  0.0560376100000000  0.6847450500000000
  0.5063384700000000  0.3908576400000000  0.6891027199999999
  0.6564678900000001  0.5533445400000000  0.6872482999999999
  0.6567749600000000  0.8909286199999999  0.6890776000000000
  0.8344079100000000  0.0564161600000000  0.6868741600000000
  0.8299400700000000  0.3884980700000000  0.6900123099999999
  0.8251312500000000  0.7232947199999999  0.6904358800000000
  0.9981272500000001  0.2246958100000000  0.6853752500000000
  0.3174027900000000  0.2261577800000000  0.6886357800000000
  0.4999304299999999  0.7260826600000000  0.6866316200000000
  0.6541859600000000  0.2225797300000000  0.6883626100000000
  0.4925550499999999  0.5006905800000000  0.6227424100000000
  0.1596161400000000  0.1683721800000000  0.6225131900000000
  0.0021551200000000  0.0031025500000000  0.6261814999999999
  0.8187454900000000  0.8370128999999999  0.6298355100000000
  0.6647059600000000  0.6649445300000000  0.6247583900000000
  0.3403244400000000  0.3382386000000000  0.6281335600000000
  0.8280547000000000  0.1678777700000000  0.6258126700000000
  0.1604261600000000  0.5020146100000000  0.6265283600000000
  0.8277411600000000  0.4993231000000000  0.6281666500000000
  0.9960938499999999  0.3398146100000000  0.6278328600000000
  0.6648778900000000  0.3346816300000000  0.6266591800000000
  0.4862965499999999  0.1695617500000000  0.6248295200000000
  0.1599303600000000  0.8308460600000001  0.6281939000000000
  0.6739136900000000  0.9981231000000000  0.6239111800000000
  0.3364739600000000  0.6699260700000000  0.6249371000000000
  0.9977183500000000  0.6687528600000000  0.6306078500000000
  0.4925816500000000  0.8345943900000000  0.6232988400000000
  0.3378012400000000  0.0070502600000000  0.6256413800000000
