Mo  S  W 
 1.0000000000000000
     9.5549999999999997    0.0000000000000000    0.0000000000000000
     0.0000000000000000   16.5497450000000015    0.0000000000000000
     0.0000000000000000    0.0000000000000000   25.0000000000000000
  Mo   S   W
  18  72  18
Direct
  0.1704060300000000  0.0553466600000000  0.3753235500000000
  0.6593887600000000  0.5603536600000000  0.3753624900000000
  0.8353951200000000  0.3940054800000000  0.3783114000000001
  0.9949442700000000  0.2227502800000000  0.3797163300000000
  0.8314052100000000  0.0590557600000000  0.3772591500000000
  0.5012657100000000  0.3874237400000000  0.3735533300000000
  0.0018901000000000  0.8880209999999999  0.3771266100000000
  0.6647567500000000  0.8938214000000000  0.3713579000000000
  0.8290652600000000  0.7218234000000000  0.3728337600000000
  0.3260922700000000  0.5562726800000000  0.3723492800000001
  0.3332435100000000  0.8904498100000000  0.3726557500000000
  0.1712680600000000  0.3937054100000000  0.3775511600000000
  0.0032382200000000  0.5549865500000000  0.3748492900000000
  0.1637686100000000  0.7248069200000000  0.3748878099999999
  0.6700860600000000  0.2239923600000000  0.3775187500000000
  0.4976051800000000  0.0548917700000000  0.3733753500000001
  0.3394091600000000  0.2237019000000000  0.3767618500000001
  0.5014774400000001  0.7241713900000000  0.3684000600000000
  0.0040034000000000  0.3361106500000000  0.3155537800000000
  0.9918522600000000  0.6643483700000000  0.3106759900000000
  0.0004437600000000  0.0065937100000000  0.3139164300000000
  0.1655798300000000  0.1641297100000000  0.3159464200000000
  0.1662153700000000  0.4993823500000000  0.3095184900000000
  0.1507435000000000  0.8372354800000000  0.3126887400000000
  0.3341442500000000  0.3368414600000000  0.3133388300000000
  0.3269424200000000  0.6712277000000000  0.3108657900000000
  0.3273400600000000  0.9997175300000001  0.3101990300000000
  0.5018011999999999  0.1683950400000000  0.3115502200000000
  0.4964327000000001  0.4975799400000001  0.3115199700000000
  0.4964080300000000  0.8375684700000000  0.3068737400000000
  0.6744412700000000  0.3351139000000000  0.3123390400000000
  0.6652628800000000  0.6559506600000000  0.3069007200000000
  0.6740385700000000  0.0042299800000000  0.3122709700000000
  0.8333977500000000  0.1671854500000000  0.3146637800000000
  0.8170750600000000  0.4987926899999999  0.3151467200000000
  0.8457212200000001  0.8368860100000000  0.3108560000000000
  0.0007491400000000  0.6674433200000000  0.4347876000000000
  0.1665182100000000  0.1712282600000000  0.4379707700000000
  0.3364592900000000  0.3337663100000000  0.4391678900000000
  0.3368297300000000  0.6680373900000000  0.4370454100000000
  0.5030700600000000  0.1695546200000000  0.4409547000000000
  0.6728185500000000  0.3389053500000000  0.4402466900000001
  0.6633839300000000  0.6661218500000000  0.4395430700000000
  0.8255841400000000  0.1689409200000000  0.4435012100000000
  0.8341156600000000  0.8318274000000000  0.4394187700000000
  0.0007311200000000  0.3357770800000000  0.4388778500000000
  0.9970229200000001  0.0048054800000000  0.4401240500000000
  0.1667758600000000  0.5057429500000000  0.4370117700000000
  0.1667057500000000  0.8328699100000000  0.4354631600000001
  0.3392327800000000  0.9983249100000000  0.4368605300000000
  0.4946335399999999  0.4973281000000000  0.4348028500000000
  0.5126518200000000  0.8328555700000000  0.4308826500000000
  0.6626581300000000  0.0009568000000000  0.4323531400000000
  0.8366590900000000  0.5038906100000000  0.4360957200000000
  0.0017898300000000  0.2266697600000000  0.5625490100000000
  0.9958916600000000  0.5566545700000000  0.5640760600000000
  0.0003253700000000  0.8854537700000000  0.5631627200000000
  0.1638057900000000  0.0575415900000000  0.5580372600000000
  0.1587601400000000  0.3890080700000000  0.5605107400000000
  0.1627254900000000  0.7209157899999999  0.5649618000000000
  0.3340693500000000  0.2276233300000000  0.5631697900000000
  0.3357717000000000  0.5519838100000000  0.5609146800000000
  0.3339838700000000  0.8871470000000000  0.5651908800000000
  0.5051021700000000  0.0543065600000000  0.5633890200000000
  0.4973476700000000  0.3854744900000000  0.5633575600000000
  0.5030797900000000  0.7181712400000000  0.5613578400000000
  0.6646089700000000  0.2232363400000000  0.5657802600000000
  0.6771858400000000  0.5512561900000000  0.5617062500000000
  0.6714707900000000  0.8845960100000000  0.5629376800000000
  0.8247219200000000  0.0551937800000000  0.5597043700000000
  0.8202666600000000  0.3866122100000000  0.5631509800000000
  0.8385794400000001  0.7227498800000000  0.5659410100000000
  0.0034699900000000  0.5534069500000000  0.6887912100000000
  0.0110622900000000  0.8925282500000000  0.6888526300000000
  0.1626131000000000  0.0580797400000000  0.6827704999999998
  0.1622022300000000  0.3957028600000000  0.6866640200000000
  0.1637421000000000  0.7213803800000000  0.6901575200000000
  0.3356994100000000  0.5534025299999999  0.6840018500000000
  0.3406712000000000  0.8921154600000000  0.6880761300000000
  0.4996888800000000  0.0547081900000000  0.6856679900000000
  0.5039445800000000  0.3869053400000000  0.6887517400000001
  0.6696626800000000  0.5490929100000000  0.6874261300000000
  0.6715416300000000  0.8896340600000000  0.6908529300000000
  0.8348044900000000  0.0577580000000000  0.6888115200000000
  0.8263395800000000  0.3877572200000000  0.6898271900000000
  0.8334362100000000  0.7182491200000000  0.6899498600000000
  0.0043646100000000  0.2283755700000000  0.6868099200000001
  0.3303683800000000  0.2238298600000000  0.6862884499999999
  0.4996578600000000  0.7180083600000000  0.6888192000000000
  0.6746179700000000  0.2173805300000000  0.6881003400000000
  0.5007835100000000  0.4951772400000000  0.6233656500000000
  0.1689343400000000  0.1700032100000000  0.6209574100000000
  0.9954490700000000  0.0033725500000000  0.6218831900000000
  0.8336301300000000  0.8312729700000000  0.6292138100000000
  0.6664450700000000  0.6626915400000000  0.6250246600000000
  0.3337757900000000  0.3368517500000000  0.6253538199999999
  0.8396043399999999  0.1673829600000000  0.6231209100000000
  0.1628515600000000  0.5008849900000000  0.6231179400000000
  0.8380895500000000  0.4972648500000000  0.6258890100000000
  0.9927913400000000  0.3394416900000000  0.6246154800000000
  0.6619689300000000  0.3307380300000000  0.6287270000000000
  0.4938716000000000  0.1696496200000000  0.6256524200000000
  0.1694140200000000  0.8339835799999999  0.6263073800000000
  0.6720551299999999  0.9987578000000000  0.6252316900000000
  0.3341300000000000  0.6643304400000000  0.6234687400000000
  0.0004098700000000  0.6647706700000000  0.6279945900000000
  0.5043622200000000  0.8296749600000000  0.6254108800000000
  0.3331817000000000  0.0032719900000000  0.6218288500000000
