Mo  S  W 
 1.0000000000000000
     9.5549999999999997    0.0000000000000000    0.0000000000000000
     0.0000000000000000   16.5497450000000015    0.0000000000000000
     0.0000000000000000    0.0000000000000000   25.0000000000000000
  Mo   S   W
  18  72  18
Direct
  0.1668631200000000  0.0544836200000000  0.3754923999999999
  0.6651261000000001  0.5529130799999999  0.3748045800000000
  0.8361282200000000  0.3938037200000000  0.3755191300000000
  0.9975866500000001  0.2209240800000000  0.3740768400000000
  0.8325410700000000  0.0540700700000000  0.3754064800000000
  0.5046230900000001  0.3849447100000000  0.3721200000000000
  0.9988548300000000  0.8886702600000000  0.3742955200000000
  0.6635492200000001  0.8836379300000000  0.3794282100000000
  0.8363451200000001  0.7138444500000000  0.3788573900000000
  0.3319924000000000  0.5473854700000000  0.3751704400000000
  0.3294584000000000  0.8847554800000000  0.3743393000000000
  0.1678138500000000  0.3811024800000000  0.3758052000000000
  0.9968405200000000  0.5508283100000000  0.3790718400000000
  0.1636866500000000  0.7161890700000000  0.3764010400000000
  0.6711728200000000  0.2153234100000000  0.3734836900000000
  0.5035195200000000  0.0573842600000000  0.3735174100000000
  0.3348908800000000  0.2264631200000000  0.3694264700000000
  0.4919471400000001  0.7156808000000000  0.3767705600000000
  0.9931349799999999  0.3336891100000000  0.3101923800000000
  0.9984058000000001  0.6541520000000000  0.3155692900000000
  0.9997746199999999  0.0047398100000000  0.3150175200000000
  0.1580818000000000  0.1665468300000000  0.3135727900000000
  0.1620538400000000  0.4985450100000000  0.3130498900000000
  0.1612111600000000  0.8264265300000000  0.3149476300000000
  0.3340749000000000  0.3344769800000000  0.3098281300000000
  0.3238702700000000  0.6601036800000000  0.3120419600000000
  0.3235182200000000  0.9986606700000001  0.3107431000000000
  0.5088921900000000  0.1636325400000000  0.3033109000000000
  0.4951631500000000  0.4949998999999999  0.3121770600000000
  0.4990202800000000  0.8317628200000000  0.3111306800000000
  0.6788992600000000  0.3375262300000000  0.3130921600000000
  0.6609405699999999  0.6714664700000000  0.3155181800000000
  0.6698809900000000  0.9923956100000000  0.3128392700000000
  0.8356644700000000  0.1687239100000000  0.3119610200000000
  0.8312816200000001  0.5042565800000000  0.3159829000000000
  0.8339182400000000  0.8251281200000000  0.3173786100000000
  0.0079622000000000  0.6620987400000000  0.4391495700000000
  0.1745111200000000  0.1662320100000000  0.4334337300000000
  0.3406069100000000  0.3307618000000000  0.4401641200000000
  0.3339751500000000  0.6587123200000000  0.4381130300000000
  0.4920180600000000  0.1695093200000000  0.4321157700000000
  0.6716385100000000  0.3366825500000000  0.4346243700000000
  0.6652511000000000  0.6676182300000000  0.4378184100000000
  0.8300238900000000  0.1641280300000000  0.4359062600000000
  0.8395640000000000  0.8326199300000000  0.4385173900000000
  0.9903992500000000  0.3352239500000000  0.4383700600000000
  0.0017285800000000  0.9953478900000000  0.4394471800000000
  0.1705380400000000  0.4894399500000000  0.4376823100000000
  0.1726937800000000  0.8304969900000000  0.4358069200000000
  0.3328467300000000  0.9981244199999999  0.4366770300000000
  0.5053896800000000  0.4914180799999999  0.4325666500000000
  0.4942236600000001  0.8353581300000000  0.4364497999999999
  0.6632663900000000  0.0015641200000000  0.4388895900000000
  0.8252766400000000  0.5020289900000000  0.4429387300000000
  0.9912417900000000  0.2251360800000000  0.5597430600000000
  0.0031299100000000  0.5618584900000000  0.5606737899999999
  0.9993691699999999  0.8840981300000000  0.5656517300000000
  0.1749602200000000  0.0617052000000000  0.5644038900000000
  0.1655705400000000  0.3937170400000000  0.5633095400000000
  0.1717415600000000  0.7307602900000000  0.5602319900000000
  0.3365667000000000  0.2239339200000000  0.5648325800000000
  0.3356768500000000  0.5589788400000000  0.5617553500000000
  0.3281438100000000  0.8903741900000000  0.5662736700000000
  0.5027723400000000  0.0565143100000000  0.5591784500000000
  0.4997527800000000  0.3878484500000000  0.5664116000000000
  0.5038413899999999  0.7247599300000001  0.5609196500000000
  0.6609332900000000  0.2236938500000000  0.5638636299999999
  0.6685625200000000  0.5564405100000001  0.5583444200000000
  0.6614261500000000  0.8946060000000000  0.5623453000000000
  0.8366848700000000  0.0547839500000000  0.5615378900000000
  0.8376518200000000  0.3883666300000000  0.5627937800000000
  0.8415974200000000  0.7251942000000000  0.5614991700000000
  0.9906420700000000  0.5604968299999999  0.6864315400000000
  0.9974654800000000  0.8932406000000001  0.6861747200000000
  0.1704288500000000  0.0588255200000000  0.6857907700000000
  0.1601068400000000  0.3977763300000000  0.6907941300000000
  0.1610619900000000  0.7238240000000000  0.6885631900000000
  0.3354359300000000  0.5601195100000000  0.6865259600000000
  0.3388457000000000  0.8906185300000000  0.6857152900000000
  0.5068560100000000  0.0505208300000000  0.6904258300000001
  0.4992363100000000  0.3927417500000000  0.6866057900000000
  0.6681082000000000  0.5548540600000000  0.6858263000000000
  0.6745249300000000  0.8892184500000000  0.6872986700000000
  0.8353691900000000  0.0570867200000000  0.6835016499999998
  0.8338442900000000  0.3926687100000000  0.6844898300000000
  0.8344341000000000  0.7223232600000000  0.6868088200000000
  0.9861878700000000  0.2210265200000000  0.6849616600000000
  0.3258156000000000  0.2192901000000000  0.6906967899999999
  0.5064852500000000  0.7259608200000000  0.6833966600000000
  0.6622223400000000  0.2255461800000000  0.6879063300000000
  0.4988309699999999  0.5023033900000000  0.6225090900000000
  0.1590719700000000  0.1736516300000000  0.6239725400000000
  0.0108900300000000  0.9999343799999999  0.6231950000000001
  0.8315653400000000  0.8341045400000000  0.6243162500000000
  0.6735670100000000  0.6679103300000000  0.6227317400000000
  0.3291417800000000  0.3339314900000000  0.6295681000000000
  0.8224456900000000  0.1664398800000000  0.6227023800000000
  0.1668342500000000  0.5091051700000000  0.6256467200000000
  0.8328345000000000  0.5032451400000000  0.6207371400000000
  0.0047924300000000  0.3347908600000000  0.6257762300000000
  0.6693082200000000  0.3362902400000000  0.6259683800000000
  0.5049383200000001  0.1639882300000000  0.6265800200000000
  0.1610618300000000  0.8364087800000000  0.6277375100000000
  0.6676233000000000  0.0007866800000000  0.6228036800000000
  0.3354840700000000  0.6715614400000000  0.6251567800000000
  0.9996940499999999  0.6734329600000000  0.6254044400000000
  0.5007120600000000  0.8389142500000000  0.6253143799999999
  0.3372615700000000  0.0008413200000000  0.6276364600000000
