Mo  S  W                                
   1.00000000000000     
     9.5549999999999997    0.0000000000000000    0.0000000000000000
     0.0000000000000000   16.5497454663206227    0.0000000000000000
     0.0000000000000000    0.0000000000000000   25.0000000000000000
   Mo   S    W 
    18    72    18
Direct
  0.1786499897874229  0.0557070290106375  0.3767957145818431
  0.6774044305649078  0.5605208344321988  0.3757552222734667
  0.8394796301339965  0.3955543659380535  0.3710793526167198
  0.0078836082216338  0.2249527512937115  0.3745620626217419
  0.8439817550341031  0.0581174611923207  0.3724370633350024
  0.5124102234997442  0.3928406951080931  0.3776362635941669
  0.0146840392948689  0.8952133408092480  0.3744268370111796
  0.6807200241344367  0.8902630526188907  0.3721319244302957
  0.8395188006165585  0.7188948964474225  0.3704911919811023
  0.3454223938149152  0.5532143466882803  0.3748698240615079
  0.3424452724163135  0.8895251979165231  0.3734257940893111
  0.1786794465346781  0.3929930886252941  0.3768943979024437
  0.0169445043620333  0.5539005624296214  0.3693846442595222
  0.1791189075010667  0.7271357268689177  0.3665760390625780
  0.6804184941647455  0.2222683695929012  0.3794309079252154
  0.5094240088276040  0.0644596451045598  0.3762469783666649
  0.3444343613704851  0.2274517177842429  0.3780179668671194
  0.5186570871791583  0.7229582115973048  0.3730041968716428
  0.0128640316839889  0.3377344117972607  0.3131253221833634
  0.0194316584364346  0.6691551178498835  0.3090829843354912
  0.0052611241470739  0.0066669758574316  0.3091383199624685
  0.1755835901148111  0.1669935396346109  0.3164079510680934
  0.1850962935334960  0.4962200103711186  0.3090818679992792
  0.1827669490745529  0.8366197116829529  0.3086499544865566
  0.3339460543014539  0.3318108855862100  0.3153833818213941
  0.3512171793364714  0.6669849908538049  0.3118199987632072
  0.3486021607657803  0.0048162699692616  0.3128695572966906
  0.5099526924089263  0.1717103591740911  0.3144354137658441
  0.5147959380633746  0.4990436091519088  0.3129590227859555
  0.5249976232032948  0.8356468270951373  0.3088002337939201
  0.6742274433346531  0.3311341803878512  0.3146711391696908
  0.6680009031761386  0.6687365202234055  0.3084597123926727
  0.6689156804260840  0.0035107551382125  0.3113330448165929
  0.8298309424433732  0.1697620814252501  0.3120437778409684
  0.8460321513905313  0.5061599638656358  0.3102310624664768
  0.8515220136231706  0.8380828007307921  0.3114566613901809
  0.0182843655276127  0.6650065569228722  0.4293344781406567
  0.1759181977129150  0.1722929048780104  0.4377643755262220
  0.3430517276097644  0.3362463741957776  0.4373946397818545
  0.3426861750075498  0.6693623120565664  0.4309199119487488
  0.5202406646206575  0.1727379012766514  0.4424047454816372
  0.6890056593734484  0.3413051519992599  0.4396711100169150
  0.6717157533478899  0.6688382208197844  0.4374369647443314
  0.8515591425205008  0.1673704399753021  0.4381246012762162
  0.8461436440687554  0.8292165434518557  0.4363190105112410
  0.0077918831777653  0.3420329418761985  0.4364177776172972
  0.0108639349770334  0.0063379135795036  0.4385093651328020
  0.1857802543484722  0.5035312052228715  0.4409385019818882
  0.1747661866111362  0.8318006494558774  0.4344782922644301
  0.3443578599563442  0.0019995162972744  0.4397207221719911
  0.5067480643373998  0.5052262872691448  0.4384780928379510
  0.5128916773730788  0.8398721091476801  0.4346384516295259
  0.6798985949921537  0.9995347179759052  0.4343383803052289
  0.8417419974933704  0.5054129923429096  0.4340245037001133
  0.9892285164550723  0.2224273247817266  0.5612029013410396
  0.9878308948082374  0.5606252079872331  0.5646294078861569
  0.9920253860710561  0.8856054022100226  0.5643828341671612
  0.1631296835379271  0.0549266277910942  0.5587316167787812
  0.1571759030729303  0.3878585449932475  0.5658308470545056
  0.1666353780389733  0.7209127468055512  0.5588385949659261
  0.3355279227637268  0.2244868588154952  0.5639100973461538
  0.3235572586855957  0.5602704512678293  0.5593708873464465
  0.3280090372001448  0.8864418262516213  0.5636841215991052
  0.4872662844808182  0.0518866111789912  0.5610614726881924
  0.4936802374157748  0.3832759157458477  0.5620724799122432
  0.5017401568329225  0.7239142584183041  0.5648906214833791
  0.6635666874423641  0.2238380155216068  0.5661891727578180
  0.6550954566272216  0.5526907140950614  0.5619665995309574
  0.6610575787722338  0.8847308464232537  0.5657141907901254
  0.8200715033038204  0.0542407485199925  0.5616322887947341
  0.8180682699881231  0.3881257343952754  0.5667123835246136
  0.8257692210523659  0.7209440846419817  0.5670860116168804
  0.9958635991923812  0.5563880153683456  0.6873217997879901
  0.9978834073241490  0.8889981158882457  0.6905632778616180
  0.1561605776386943  0.0578017874276738  0.6852287446423472
  0.1638402281741331  0.3864494939646016  0.6867482609536305
  0.1688733711821601  0.7199759305157005  0.6904159879274591
  0.3233516361010170  0.5564600995809792  0.6867415030846129
  0.3298502581838746  0.8856725959867672  0.6885836970627683
  0.4835885005224412  0.0536662833239399  0.6890370489106161
  0.4915016939913858  0.3869248559075532  0.6878455295067883
  0.6489231877727532  0.5522480989471730  0.6908569858810559
  0.6590103422895490  0.8877017604883174  0.6880061498953304
  0.8268792806237427  0.0492502396387980  0.6872733575106222
  0.8316360162708788  0.3916387741615868  0.6891397715131563
  0.8228602259315003  0.7223799202121489  0.6912325114818783
  0.9964257219759676  0.2207767262839028  0.6877362628258117
  0.3243425207721850  0.2226777789265934  0.6869270693658192
  0.4988811740372564  0.7189471387724474  0.6911184887296118
  0.6567234892564456  0.2144660745334884  0.6913134044093835
  0.4917879214148896  0.4988759149540810  0.6243468742248419
  0.1564923339003784  0.1665776815409439  0.6214866829385404
  0.9943882106014397  0.0008882491956624  0.6229924858107933
  0.8311099868178913  0.8337435772955587  0.6307669040426717
  0.6623384497898310  0.6645647510844497  0.6257522970562168
  0.3236252135642116  0.3358012268096934  0.6259634940864185
  0.8251959683374799  0.1628164022311853  0.6267772749235183
  0.1577626795928423  0.5018690112802221  0.6227308831028491
  0.8188000717044221  0.4969282860196924  0.6266561286717621
  0.9882835320886845  0.3325619490168252  0.6250160451550568
  0.6607342907183007  0.3331920013366698  0.6270355507631309
  0.4954287265433173  0.1624527035498243  0.6264838387610524
  0.1659366236086964  0.8305164885638187  0.6265081280183750
  0.6534086396755537  0.9977245816678132  0.6233619683031102
  0.3338783645742211  0.6660036107955438  0.6239017948716615
  0.9894028148796332  0.6711309906831827  0.6255144625661789
  0.4946556009173216  0.8316911931680632  0.6265192600360334
  0.3169499062185226  0.9984026096599944  0.6229439008825643
 
 -0.30190090E-03 -0.14090378E-02  0.40904209E-03
  0.68866323E-03  0.83333116E-04 -0.10169353E-02
 -0.12291351E-02 -0.28265361E-02  0.30710564E-02
  0.26214543E-02 -0.35910341E-02  0.82846987E-03
 -0.15493042E-02  0.80333729E-03  0.66414617E-03
 -0.16047850E-02 -0.33509058E-02 -0.18051614E-02
  0.17592841E-02  0.16956664E-02 -0.55776199E-03
  0.32178531E-02  0.13626781E-02  0.10432958E-02
  0.91003659E-03 -0.93976192E-03  0.17942472E-02
  0.28472606E-03  0.19260046E-02 -0.14023678E-02
 -0.12673939E-02 -0.41145340E-02 -0.11731331E-02
 -0.46811336E-03  0.16469382E-03  0.14654512E-02
  0.68837210E-03 -0.23746863E-03  0.13726915E-02
  0.92505794E-03  0.42539034E-02 -0.18540690E-03
 -0.27134286E-02 -0.31863575E-03  0.21141255E-02
  0.67920239E-03 -0.17609917E-02 -0.62578779E-03
 -0.90955557E-03 -0.49616036E-03 -0.36387531E-02
  0.45326724E-03  0.33120922E-03  0.15364544E-03
  0.16349588E-02  0.48003363E-02 -0.26110946E-02
 -0.19228549E-02  0.70816612E-02 -0.45985001E-02
 -0.25141806E-02  0.66414784E-03 -0.23579310E-03
  0.29257852E-02  0.10931936E-02 -0.58820676E-03
 -0.18082245E-02  0.81356790E-04  0.91332151E-03
 -0.19329671E-02  0.79519407E-03 -0.49080322E-02
  0.15011559E-02 -0.53006370E-03  0.27643952E-02
  0.11103200E-02  0.81762665E-02 -0.16675171E-02
  0.95235609E-03 -0.39573404E-02  0.48031556E-02
  0.31429719E-02 -0.10587073E-02 -0.50874667E-02
 -0.11492259E-02  0.39643534E-02  0.17834564E-03
  0.13623291E-02  0.28909656E-02  0.19296203E-02
 -0.43504292E-02 -0.39326425E-02  0.36314556E-02
 -0.55102880E-02  0.26378933E-02  0.42552109E-02
  0.24650023E-02 -0.32558848E-02  0.85636758E-03
  0.13771529E-02 -0.16009689E-02 -0.55964772E-04
  0.27599588E-02 -0.17760130E-02 -0.19528835E-02
 -0.23641340E-02 -0.14884350E-02  0.40451857E-02
 -0.29981958E-02  0.43402226E-02 -0.38758927E-02
  0.40622539E-03 -0.53985666E-02 -0.16235787E-02
 -0.45132084E-02  0.65533470E-02 -0.40470330E-02
  0.43630227E-02  0.22438337E-02 -0.19727690E-02
 -0.87680134E-03  0.43815082E-04 -0.33335548E-03
 -0.10973104E-02 -0.38866799E-02 -0.36833385E-02
 -0.24714932E-02 -0.42040840E-02 -0.39207873E-02
 -0.10946198E-02 -0.33886156E-02  0.12348329E-02
 -0.21622318E-02  0.37866845E-02 -0.58124793E-04
 -0.58679665E-02  0.28652671E-02 -0.22326537E-02
  0.20974743E-02 -0.62449122E-03 -0.31725048E-02
 -0.19927084E-02  0.81212755E-03  0.35374303E-02
 -0.65702330E-03  0.41808415E-02  0.75695653E-03
  0.17728504E-02 -0.22639329E-02  0.24083512E-03
  0.29384248E-02 -0.20185520E-02 -0.21163666E-02
 -0.46121393E-02  0.34274650E-03 -0.83768218E-03
 -0.36681263E-02  0.43778453E-04  0.81355870E-03
 -0.74890156E-03  0.11329645E-02  0.42456830E-02
  0.32132617E-02  0.21592001E-02 -0.18552172E-02
  0.49510460E-03 -0.52676376E-03 -0.13540851E-02
  0.38225312E-03 -0.13832024E-02 -0.18525525E-02
 -0.32701282E-02 -0.41413130E-04  0.38305807E-02
  0.67288536E-03  0.40627095E-02 -0.27172774E-02
 -0.23355248E-03  0.25943526E-02  0.21207570E-02
  0.65767152E-02  0.20100670E-02  0.78231152E-03
  0.24398760E-02 -0.19311311E-02  0.23637088E-02
  0.19520562E-02  0.22549863E-02 -0.52875697E-03
 -0.96410636E-03 -0.26014199E-02  0.23855589E-02
 -0.57101161E-04  0.16124962E-02  0.34929359E-02
 -0.29002767E-02  0.55990389E-03 -0.34827557E-03
  0.15887788E-03 -0.10317084E-02  0.20338185E-02
  0.99614148E-03  0.11142423E-02 -0.25925346E-02
 -0.21467567E-03 -0.22497423E-03 -0.15649761E-02
 -0.63631338E-03  0.21063074E-02  0.99826611E-03
 -0.59780449E-03 -0.28375943E-02  0.12214435E-02
 -0.17311996E-02 -0.26959209E-02 -0.26177411E-02
  0.65217066E-03 -0.20439628E-02  0.65889262E-03
  0.19716739E-02  0.32765536E-02 -0.21673511E-02
  0.71546591E-03  0.13768348E-02  0.60438018E-02
 -0.22650646E-02 -0.65133181E-03  0.14341652E-02
 -0.42941072E-02  0.27427260E-02  0.23219116E-02
  0.25144496E-02  0.19296466E-03  0.58840677E-03
  0.94066401E-03 -0.11282373E-03  0.13065376E-02
 -0.11947574E-02  0.33590846E-02 -0.17512697E-03
 -0.48041714E-03 -0.13645905E-02 -0.10540891E-02
  0.40027111E-02 -0.27643826E-02  0.24766545E-03
  0.36903288E-02  0.29641635E-03  0.34687596E-02
 -0.36584889E-02 -0.53164484E-03 -0.89639457E-03
 -0.11840698E-02 -0.12701999E-02  0.93602742E-03
 -0.66351037E-03 -0.25762770E-02 -0.45850661E-02
 -0.30513877E-02  0.59318290E-03  0.19821889E-02
  0.19785959E-02  0.12942851E-03 -0.65988752E-03
 -0.46833006E-02 -0.54791529E-03  0.15231110E-02
  0.18222224E-02  0.32214780E-02 -0.31520905E-02
  0.15964468E-02 -0.97215857E-03  0.15735759E-02
  0.80888242E-03  0.23760635E-02  0.14546050E-02
 -0.13883389E-03  0.12614730E-02  0.16322260E-03
  0.12543016E-02 -0.19853755E-02 -0.16827448E-02
 -0.93301124E-03 -0.18111546E-02  0.53307732E-03
 -0.23266662E-02 -0.28276444E-03 -0.48324044E-04
 -0.23990387E-03  0.11413244E-02 -0.79212951E-03
  0.26544151E-02 -0.11849654E-03  0.44699583E-03
 -0.16099043E-02  0.27144065E-03 -0.10594033E-03
 -0.22560795E-03 -0.69878592E-03 -0.75947757E-03
 -0.15799534E-02  0.14703410E-03 -0.11667785E-02
  0.30583033E-02  0.11290499E-02 -0.84328061E-03
  0.91812290E-03  0.17879941E-02 -0.10849846E-02
 -0.13418611E-02  0.11690109E-02  0.10182886E-02
 -0.22610673E-03 -0.11864818E-02  0.11166830E-02
 -0.28610257E-03 -0.11946626E-02 -0.20001370E-02
  0.18925402E-02 -0.19396295E-02  0.85304232E-03
 -0.85549984E-03  0.47588217E-03  0.66874987E-03
 
           1
   1.00000000000000     
  0.62563402E+00 -0.39680696E-02  0.39612241E-17  0.00000000E+00
  0.17861839E+00  0.55621889E-01  0.37681208E+00
  0.67747650E+00  0.56052587E+00  0.37571454E+00
  0.83935099E+00  0.39538358E+00  0.37120219E+00
  0.81579624E-02  0.22473577E+00  0.37459520E+00
  0.84381961E+00  0.58166002E-01  0.37246363E+00
  0.51224227E+00  0.39263822E+00  0.37756406E+00
  0.14868161E-01  0.89531580E+00  0.37440453E+00
  0.68105680E+00  0.89034539E+00  0.37217366E+00
  0.83961404E+00  0.71883811E+00  0.37056296E+00
  0.34545219E+00  0.55333072E+00  0.37481373E+00
  0.34231263E+00  0.88927658E+00  0.37337887E+00
  0.17863046E+00  0.39300304E+00  0.37695302E+00
  0.17016547E-01  0.55388621E+00  0.36943955E+00
  0.17921572E+00  0.72739276E+00  0.36656862E+00
  0.68013451E+00  0.22224912E+00  0.37951547E+00
  0.50949509E+00  0.64353239E-01  0.37622195E+00
  0.34433917E+00  0.22742174E+00  0.37787242E+00
  0.51870452E+00  0.72297822E+00  0.37301034E+00
  0.13035142E-01  0.33802447E+00  0.31302088E+00
  0.19230418E-01  0.66958302E+00  0.30889904E+00
  0.49979969E-02  0.67071063E-02  0.30912889E+00
  0.17588979E+00  0.16705959E+00  0.31638442E+00
  0.18490705E+00  0.49622493E+00  0.30911840E+00
  0.18256465E+00  0.83666776E+00  0.30845363E+00
  0.33410316E+00  0.33177886E+00  0.31549396E+00
  0.35133338E+00  0.66747903E+00  0.31175330E+00
  0.34870183E+00  0.45771521E-02  0.31306168E+00
  0.51028163E+00  0.17164639E+00  0.31423192E+00
  0.51467566E+00  0.49928315E+00  0.31296616E+00
  0.52514020E+00  0.83582151E+00  0.30887742E+00
  0.67377214E+00  0.33089655E+00  0.31481640E+00
  0.66742421E+00  0.66889591E+00  0.30862992E+00
  0.66917366E+00  0.33140219E-02  0.31136730E+00
  0.82997507E+00  0.16966534E+00  0.31204154E+00
  0.84632100E+00  0.50605265E+00  0.31015295E+00
  0.85127459E+00  0.83799286E+00  0.31161847E+00
  0.17970583E-01  0.66526881E+00  0.42917944E+00
  0.17596071E+00  0.17196670E+00  0.43769943E+00
  0.34257939E+00  0.33664235E+00  0.43723276E+00
  0.34314280E+00  0.66949789E+00  0.43084100E+00
  0.52014890E+00  0.17274055E+00  0.44239141E+00
  0.68889082E+00  0.34107030E+00  0.43952378E+00
  0.67145709E+00  0.66858419E+00  0.43728013E+00
  0.85144458E+00  0.16716569E+00  0.43817399E+00
  0.84591735E+00  0.82944535E+00  0.43631669E+00
  0.71777580E-02  0.34220607E+00  0.43632847E+00
  0.11083451E-01  0.63001794E-02  0.43838246E+00
  0.18557170E+00  0.50358028E+00  0.44108000E+00
  0.17469742E+00  0.83205327E+00  0.43450857E+00
  0.34454340E+00  0.18627207E-02  0.43973036E+00
  0.50705559E+00  0.50510432E+00  0.43839344E+00
  0.51240898E+00  0.83989282E+00  0.43460494E+00
  0.67951470E+00  0.99953736E+00  0.43437092E+00
  0.84166362E+00  0.50548145E+00  0.43419433E+00
  0.98956481E+00  0.22255779E+00  0.56112869E+00
  0.98788271E+00  0.56059338E+00  0.56457524E+00
  0.99206539E+00  0.88552182E+00  0.56430873E+00
  0.16278744E+00  0.54924125E-01  0.55888484E+00
  0.15724633E+00  0.38810403E+00  0.56572216E+00
  0.16661094E+00  0.72106951E+00  0.55892343E+00
  0.33621622E+00  0.22460831E+00  0.56394139E+00
  0.32381261E+00  0.56015376E+00  0.55946544E+00
  0.32821333E+00  0.88657808E+00  0.56366297E+00
  0.48716538E+00  0.51729423E-01  0.56115690E+00
  0.49367426E+00  0.38337335E+00  0.56221220E+00
  0.50143662E+00  0.72394809E+00  0.56487669E+00
  0.66358332E+00  0.22377568E+00  0.56627053E+00
  0.65519971E+00  0.55275804E+00  0.56186290E+00
  0.66103511E+00  0.88471725E+00  0.56565159E+00
  0.82000491E+00  0.54368020E-01  0.56167222E+00
  0.81800571E+00  0.38795428E+00  0.56676124E+00
  0.82558804E+00  0.72078119E+00  0.56698130E+00
  0.99593185E+00  0.55626451E+00  0.68734816E+00
  0.99808976E+00  0.88919610E+00  0.69047658E+00
  0.15623546E+00  0.57884981E-01  0.68547050E+00
  0.16360317E+00  0.38641014E+00  0.68680563E+00
  0.16842396E+00  0.72014166E+00  0.69050886E+00
  0.32361479E+00  0.55647176E+00  0.68676504E+00
  0.32994871E+00  0.88566578E+00  0.68863596E+00
  0.48346346E+00  0.53869252E-01  0.68903004E+00
  0.49145141E+00  0.38684240E+00  0.68780337E+00
  0.64934210E+00  0.55208106E+00  0.69086689E+00
  0.65939656E+00  0.88771967E+00  0.68814490E+00
  0.82649639E+00  0.49218116E-01  0.68723750E+00
  0.83151209E+00  0.39156202E+00  0.68917721E+00
  0.82279078E+00  0.72222425E+00  0.69104911E+00
  0.99610637E+00  0.22081257E+00  0.68781555E+00
  0.32454960E+00  0.22268560E+00  0.68690067E+00
  0.49839103E+00  0.71891403E+00  0.69117941E+00
  0.65691420E+00  0.21466073E+00  0.69118732E+00
  0.49195500E+00  0.49881717E+00  0.62440982E+00
  0.15657699E+00  0.16672125E+00  0.62154487E+00
  0.99437368E+00  0.96447230E-03  0.62299901E+00
  0.83124126E+00  0.83362361E+00  0.63069959E+00
  0.66224080E+00  0.66445531E+00  0.62577362E+00
  0.32338171E+00  0.33578414E+00  0.62596156E+00
  0.82517086E+00  0.16288537E+00  0.62674559E+00
  0.15804048E+00  0.50186185E+00  0.62274876E+00
  0.81863158E+00  0.49694469E+00  0.62665189E+00
  0.98825992E+00  0.33251973E+00  0.62498567E+00
  0.66056894E+00  0.33320089E+00  0.62698888E+00
  0.49574880E+00  0.16252093E+00  0.62645011E+00
  0.16603271E+00  0.83062453E+00  0.62646473E+00
  0.65326820E+00  0.99779522E+00  0.62340270E+00
  0.33385470E+00  0.66593192E+00  0.62394646E+00
  0.98937287E+00  0.67105880E+00  0.62543446E+00
  0.49485367E+00  0.83157399E+00  0.62655338E+00
  0.31686037E+00  0.99843136E+00  0.62297065E+00
 -0.29389927E-04 -0.86984142E-04  0.17293990E-04
  0.75349742E-04  0.62675698E-05 -0.37645748E-04
 -0.13333415E-03 -0.16792715E-03  0.11998573E-03
  0.27428494E-03 -0.21743079E-03  0.32486132E-04
 -0.16069351E-03  0.48514709E-04  0.24999642E-04
 -0.16632467E-03 -0.19842125E-03 -0.70778796E-04
  0.18579337E-03  0.10522150E-03 -0.21424888E-04
  0.33474198E-03  0.81595800E-04  0.40577842E-04
  0.89824828E-04 -0.59502439E-04  0.70381352E-04
  0.30690821E-04  0.11378352E-03 -0.53876861E-04
 -0.13862114E-03 -0.24962942E-03 -0.46344774E-04
 -0.47193603E-04  0.10475824E-04  0.59146841E-04
  0.69648520E-04 -0.15760597E-04  0.51999408E-04
  0.94593626E-04  0.25894635E-03 -0.12279631E-04
 -0.28143440E-03 -0.23374748E-04  0.85667012E-04
  0.70494185E-04 -0.10014160E-03 -0.25927217E-04
 -0.96508062E-04 -0.25145404E-04 -0.14472932E-03
  0.53412509E-04  0.16421589E-04  0.61606163E-05
  0.17260808E-03  0.29030497E-03 -0.10309178E-03
 -0.18263283E-03  0.43147864E-03 -0.17743595E-03
 -0.27594039E-03  0.42828985E-04 -0.14030299E-04
  0.29885082E-03  0.62619309E-04 -0.20552013E-04
 -0.18941160E-03  0.18432394E-05  0.33632296E-04
 -0.19393871E-03  0.38229136E-04 -0.19406139E-03
  0.13908712E-03 -0.39741298E-04  0.11242546E-03
  0.11417560E-03  0.49560810E-03 -0.62379140E-04
  0.10418299E-03 -0.23811838E-03  0.18913503E-03
  0.32700395E-03 -0.68234027E-04 -0.20451742E-03
 -0.11873171E-03  0.23737330E-03  0.63875323E-05
  0.16059257E-03  0.17450901E-03  0.73988022E-04
 -0.45000152E-03 -0.24060041E-03  0.14516717E-03
 -0.58836827E-03  0.16308334E-03  0.16915947E-03
  0.25221488E-03 -0.19903562E-03  0.32640349E-04
  0.12674399E-03 -0.97811072E-04 -0.31369300E-05
  0.29972146E-03 -0.10586825E-03 -0.75132022E-04
 -0.24413803E-03 -0.86289674E-04  0.16121977E-03
 -0.30770411E-03  0.25693402E-03 -0.15631789E-03
  0.45550166E-04 -0.32134267E-03 -0.65916937E-04
 -0.47356918E-03  0.38976170E-03 -0.16732177E-03
  0.45721060E-03  0.13205661E-03 -0.82586306E-04
 -0.75974221E-04  0.53030754E-05 -0.11563343E-04
 -0.10538313E-03 -0.23081203E-03 -0.14387816E-03
 -0.27032242E-03 -0.25596039E-03 -0.15618648E-03
 -0.11052969E-03 -0.20267259E-03  0.49301981E-04
 -0.22617154E-03  0.22381946E-03  0.26769888E-05
 -0.60455123E-03  0.17717108E-03 -0.87964016E-04
  0.22449824E-03 -0.32403496E-04 -0.12361579E-03
 -0.19484724E-03  0.49245691E-04  0.14767057E-03
 -0.72542051E-04  0.24880764E-03  0.30717540E-04
  0.18267971E-03 -0.13520578E-03  0.14122359E-04
  0.29656652E-03 -0.11967472E-03 -0.85291613E-04
 -0.48196287E-03  0.27662044E-04 -0.33520416E-04
 -0.38118379E-03 -0.14829774E-05  0.30716228E-04
 -0.91846188E-04  0.68988558E-04  0.16760776E-03
  0.34053809E-03  0.13191514E-03 -0.75459877E-04
  0.57621825E-04 -0.25043048E-04 -0.51537762E-04
  0.34141256E-04 -0.82785059E-04 -0.74796724E-04
 -0.32898004E-03 -0.35098765E-05  0.15210483E-03
  0.73743338E-04  0.24314015E-03 -0.99204594E-04
 -0.17570701E-04  0.15473806E-03  0.75810991E-04
  0.69447473E-03  0.12511090E-03  0.32381601E-04
  0.24775670E-03 -0.10761974E-03  0.90779962E-04
  0.20484695E-03  0.13905697E-03 -0.18671511E-04
 -0.10212943E-03 -0.15955836E-03  0.93138556E-04
 -0.64339150E-05  0.90509035E-04  0.13705023E-03
 -0.29979999E-03  0.37915165E-04 -0.86744085E-05
  0.21560368E-04 -0.55242269E-04  0.83902691E-04
  0.97288934E-04  0.65835017E-04 -0.10491874E-03
 -0.29830305E-04 -0.13013638E-04 -0.58796788E-04
 -0.70069433E-04  0.12750202E-03  0.38845198E-04
 -0.72743021E-04 -0.17093183E-03  0.58278971E-04
 -0.17758474E-03 -0.17155021E-03 -0.96710373E-04
  0.76167741E-04 -0.12263702E-03  0.28591810E-04
  0.19704672E-03  0.19434879E-03 -0.83096379E-04
  0.74836496E-04  0.84476136E-04  0.24092526E-03
 -0.21780456E-03 -0.47540493E-04  0.54767137E-04
 -0.44235993E-03  0.16570717E-03  0.99651649E-04
  0.25942867E-03  0.15672266E-04  0.26198382E-04
  0.10381306E-03 -0.11721387E-04  0.52555896E-04
 -0.12769432E-03  0.20782065E-03 -0.21753710E-05
 -0.49844422E-04 -0.85662847E-04 -0.42953755E-04
  0.40744772E-03 -0.16662007E-03  0.15424841E-04
  0.38807790E-03  0.13634551E-04  0.13498531E-03
 -0.37653459E-03 -0.34017396E-04 -0.33903857E-04
 -0.11491173E-03 -0.67643684E-04  0.34637097E-04
 -0.75212449E-04 -0.15111526E-03 -0.18159919E-03
 -0.31332992E-03  0.37483392E-04  0.81682963E-04
  0.20807226E-03  0.11989890E-04 -0.24009356E-04
 -0.48406068E-03 -0.34136015E-04  0.66576155E-04
  0.18357367E-03  0.18752899E-03 -0.12196406E-03
  0.16869153E-03 -0.58621102E-04  0.62737147E-04
  0.82175140E-04  0.14267066E-03  0.57188494E-04
 -0.13701847E-04  0.76853219E-04  0.61580429E-05
  0.13265926E-03 -0.11888072E-03 -0.65402066E-04
 -0.95850594E-04 -0.10843883E-03  0.19729876E-04
 -0.24644825E-03 -0.15336104E-04 -0.14426936E-05
 -0.26031283E-04  0.67808476E-04 -0.31525151E-04
  0.27569205E-03 -0.74053045E-05  0.16665203E-04
 -0.16963801E-03  0.13052529E-04 -0.44924115E-05
 -0.25197934E-04 -0.41964581E-04 -0.31158220E-04
 -0.16345715E-03  0.99360538E-05 -0.47982931E-04
  0.32045721E-03  0.66807313E-04 -0.33314710E-04
  0.98007700E-04  0.10777688E-03 -0.42997510E-04
 -0.14095524E-03  0.69605521E-04  0.39153193E-04
 -0.21171376E-04 -0.72510185E-04  0.43632522E-04
 -0.35137738E-04 -0.70939409E-04 -0.81298302E-04
  0.19762426E-03 -0.11687442E-03  0.33380915E-04
 -0.93480745E-04  0.28346850E-04  0.25355068E-04
  0.00000000E+00  0.00000000E+00  0.00000000E+00
  0.00000000E+00  0.00000000E+00  0.00000000E+00
  0.00000000E+00  0.00000000E+00  0.00000000E+00
  0.00000000E+00  0.00000000E+00  0.00000000E+00
  0.00000000E+00  0.00000000E+00  0.00000000E+00
  0.00000000E+00  0.00000000E+00  0.00000000E+00
  0.00000000E+00  0.00000000E+00  0.00000000E+00
  0.00000000E+00  0.00000000E+00  0.00000000E+00
  0.00000000E+00  0.00000000E+00  0.00000000E+00
  0.00000000E+00  0.00000000E+00  0.00000000E+00
  0.00000000E+00  0.00000000E+00  0.00000000E+00
  0.00000000E+00  0.00000000E+00  0.00000000E+00
  0.00000000E+00  0.00000000E+00  0.00000000E+00
  0.00000000E+00  0.00000000E+00  0.00000000E+00
  0.00000000E+00  0.00000000E+00  0.00000000E+00
  0.00000000E+00  0.00000000E+00  0.00000000E+00
  0.00000000E+00  0.00000000E+00  0.00000000E+00
  0.00000000E+00  0.00000000E+00  0.00000000E+00
  0.00000000E+00  0.00000000E+00  0.00000000E+00
  0.00000000E+00  0.00000000E+00  0.00000000E+00
  0.00000000E+00  0.00000000E+00  0.00000000E+00
  0.00000000E+00  0.00000000E+00  0.00000000E+00
  0.00000000E+00  0.00000000E+00  0.00000000E+00
  0.00000000E+00  0.00000000E+00  0.00000000E+00
  0.00000000E+00  0.00000000E+00  0.00000000E+00
  0.00000000E+00  0.00000000E+00  0.00000000E+00
  0.00000000E+00  0.00000000E+00  0.00000000E+00
  0.00000000E+00  0.00000000E+00  0.00000000E+00
  0.00000000E+00  0.00000000E+00  0.00000000E+00
  0.00000000E+00  0.00000000E+00  0.00000000E+00
  0.00000000E+00  0.00000000E+00  0.00000000E+00
  0.00000000E+00  0.00000000E+00  0.00000000E+00
  0.00000000E+00  0.00000000E+00  0.00000000E+00
  0.00000000E+00  0.00000000E+00  0.00000000E+00
  0.00000000E+00  0.00000000E+00  0.00000000E+00
  0.00000000E+00  0.00000000E+00  0.00000000E+00
  0.00000000E+00  0.00000000E+00  0.00000000E+00
  0.00000000E+00  0.00000000E+00  0.00000000E+00
  0.00000000E+00  0.00000000E+00  0.00000000E+00
  0.00000000E+00  0.00000000E+00  0.00000000E+00
  0.00000000E+00  0.00000000E+00  0.00000000E+00
  0.00000000E+00  0.00000000E+00  0.00000000E+00
  0.00000000E+00  0.00000000E+00  0.00000000E+00
  0.00000000E+00  0.00000000E+00  0.00000000E+00
  0.00000000E+00  0.00000000E+00  0.00000000E+00
  0.00000000E+00  0.00000000E+00  0.00000000E+00
  0.00000000E+00  0.00000000E+00  0.00000000E+00
  0.00000000E+00  0.00000000E+00  0.00000000E+00
  0.00000000E+00  0.00000000E+00  0.00000000E+00
  0.00000000E+00  0.00000000E+00  0.00000000E+00
  0.00000000E+00  0.00000000E+00  0.00000000E+00
  0.00000000E+00  0.00000000E+00  0.00000000E+00
  0.00000000E+00  0.00000000E+00  0.00000000E+00
  0.00000000E+00  0.00000000E+00  0.00000000E+00
  0.00000000E+00  0.00000000E+00  0.00000000E+00
  0.00000000E+00  0.00000000E+00  0.00000000E+00
  0.00000000E+00  0.00000000E+00  0.00000000E+00
  0.00000000E+00  0.00000000E+00  0.00000000E+00
  0.00000000E+00  0.00000000E+00  0.00000000E+00
  0.00000000E+00  0.00000000E+00  0.00000000E+00
  0.00000000E+00  0.00000000E+00  0.00000000E+00
  0.00000000E+00  0.00000000E+00  0.00000000E+00
  0.00000000E+00  0.00000000E+00  0.00000000E+00
  0.00000000E+00  0.00000000E+00  0.00000000E+00
  0.00000000E+00  0.00000000E+00  0.00000000E+00
  0.00000000E+00  0.00000000E+00  0.00000000E+00
  0.00000000E+00  0.00000000E+00  0.00000000E+00
  0.00000000E+00  0.00000000E+00  0.00000000E+00
  0.00000000E+00  0.00000000E+00  0.00000000E+00
  0.00000000E+00  0.00000000E+00  0.00000000E+00
  0.00000000E+00  0.00000000E+00  0.00000000E+00
  0.00000000E+00  0.00000000E+00  0.00000000E+00
  0.00000000E+00  0.00000000E+00  0.00000000E+00
  0.00000000E+00  0.00000000E+00  0.00000000E+00
  0.00000000E+00  0.00000000E+00  0.00000000E+00
  0.00000000E+00  0.00000000E+00  0.00000000E+00
  0.00000000E+00  0.00000000E+00  0.00000000E+00
  0.00000000E+00  0.00000000E+00  0.00000000E+00
  0.00000000E+00  0.00000000E+00  0.00000000E+00
  0.00000000E+00  0.00000000E+00  0.00000000E+00
  0.00000000E+00  0.00000000E+00  0.00000000E+00
  0.00000000E+00  0.00000000E+00  0.00000000E+00
  0.00000000E+00  0.00000000E+00  0.00000000E+00
  0.00000000E+00  0.00000000E+00  0.00000000E+00
  0.00000000E+00  0.00000000E+00  0.00000000E+00
  0.00000000E+00  0.00000000E+00  0.00000000E+00
  0.00000000E+00  0.00000000E+00  0.00000000E+00
  0.00000000E+00  0.00000000E+00  0.00000000E+00
  0.00000000E+00  0.00000000E+00  0.00000000E+00
  0.00000000E+00  0.00000000E+00  0.00000000E+00
  0.00000000E+00  0.00000000E+00  0.00000000E+00
  0.00000000E+00  0.00000000E+00  0.00000000E+00
  0.00000000E+00  0.00000000E+00  0.00000000E+00
  0.00000000E+00  0.00000000E+00  0.00000000E+00
  0.00000000E+00  0.00000000E+00  0.00000000E+00
  0.00000000E+00  0.00000000E+00  0.00000000E+00
  0.00000000E+00  0.00000000E+00  0.00000000E+00
  0.00000000E+00  0.00000000E+00  0.00000000E+00
  0.00000000E+00  0.00000000E+00  0.00000000E+00
  0.00000000E+00  0.00000000E+00  0.00000000E+00
  0.00000000E+00  0.00000000E+00  0.00000000E+00
  0.00000000E+00  0.00000000E+00  0.00000000E+00
  0.00000000E+00  0.00000000E+00  0.00000000E+00
  0.00000000E+00  0.00000000E+00  0.00000000E+00
  0.00000000E+00  0.00000000E+00  0.00000000E+00
  0.00000000E+00  0.00000000E+00  0.00000000E+00
  0.00000000E+00  0.00000000E+00  0.00000000E+00
  0.00000000E+00  0.00000000E+00  0.00000000E+00
