Mo  S  W 
 1.0000000000000000
     9.5549999999999997    0.0000000000000000    0.0000000000000000
     0.0000000000000000   16.5497450000000015    0.0000000000000000
     0.0000000000000000    0.0000000000000000   25.0000000000000000
  Mo   S   W
  18  72  18
Direct
  0.1673055600000000  0.0601132100000000  0.3770925800000000
  0.6703972800000000  0.5499190000000000  0.3766120800000000
  0.8440702900000000  0.3907266000000000  0.3787193999999999
  0.0032480600000000  0.2278465300000000  0.3757124200000000
  0.8424513399999999  0.0587667700000000  0.3786954200000000
  0.5029257499999999  0.3912533900000000  0.3746700000000000
  0.0071301800000000  0.8866645100000000  0.3818999500000000
  0.6744065200000000  0.8878001400000000  0.3765053900000000
  0.8480393400000000  0.7234816900000000  0.3787522400000000
  0.3408226300000000  0.5572883100000000  0.3783572700000001
  0.3407922600000000  0.8907118400000000  0.3803285000000000
  0.1737195600000000  0.3860154500000000  0.3758209499999999
  0.0029936800000000  0.5576814200000000  0.3787524899999999
  0.1744397400000000  0.7200288000000000  0.3772295900000000
  0.6698689700000000  0.2278437600000000  0.3802631800000000
  0.5050550800000000  0.0529678300000000  0.3781077600000000
  0.3331782800000000  0.2211894100000000  0.3758855400000000
  0.5047346600000000  0.7238334600000000  0.3766684200000000
  0.0018285800000000  0.3349870500000000  0.3123052300000000
  0.0036362400000000  0.6717733700000000  0.3116217200000000
  0.0028135200000000  0.9989846400000000  0.3190748500000000
  0.1649812400000000  0.1741064100000000  0.3120301500000000
  0.1708563900000000  0.5016698500000000  0.3155883400000000
  0.1747581500000000  0.8381650400000000  0.3185542500000000
  0.3437427800000000  0.3322103300000000  0.3147937600000000
  0.3372652100000000  0.6667205800000000  0.3117718500000000
  0.3342689700000000  0.0000363000000000  0.3176822300000000
  0.5071526600000000  0.1660600800000000  0.3169715100000000
  0.4923478400000000  0.5075426900000000  0.3144727600000000
  0.5102051200000000  0.8307084900000000  0.3194369200000000
  0.6693864400000000  0.3280892900000000  0.3126035000000000
  0.6745196900000000  0.6709728700000001  0.3173127500000000
  0.6753972200000000  0.0024288300000000  0.3169093700000000
  0.8323003700000000  0.1736480600000000  0.3138222800000000
  0.8368392099999999  0.5009814400000000  0.3138017100000000
  0.8305883500000000  0.8279945700000000  0.3133660900000000
  0.0142249800000000  0.6683848600000000  0.4424694000000000
  0.1574738300000000  0.1698224200000000  0.4410000100000000
  0.3437440000000000  0.3357668600000000  0.4393442800000000
  0.3465220200000000  0.6658791200000000  0.4385837000000000
  0.4867186900000000  0.1714823600000000  0.4399149700000000
  0.6712583900000000  0.3411706800000000  0.4417307800000000
  0.6789750400000000  0.6687899600000000  0.4398240800000000
  0.8359086500000000  0.1719932000000000  0.4391588400000000
  0.8381038000000001  0.8397329800000000  0.4432358100000001
  0.0076475800000000  0.3328999000000000  0.4410506000000000
  0.0063363000000000  0.0008726600000000  0.4461969700000000
  0.1663490000000000  0.4982295200000000  0.4374773400000000
  0.1900254700000000  0.8295180400000000  0.4407119900000000
  0.3324011100000000  0.0100087300000000  0.4395092600000000
  0.5052985800000001  0.4977462300000000  0.4449770000000000
  0.5138862199999999  0.8334160200000000  0.4409523700000000
  0.6704623600000000  0.0033224100000000  0.4372110400000000
  0.8430731900000000  0.5020355100000000  0.4389148400000000
  0.0031550700000000  0.2260637300000000  0.5641294400000000
  0.0022829400000000  0.5619473200000000  0.5588192700000000
  0.9932963100000000  0.8887835200000000  0.5587170000000000
  0.1508059800000000  0.0528126800000000  0.5613942000000000
  0.1588893300000000  0.3870579800000000  0.5620918300000000
  0.1568810800000000  0.7277970100000000  0.5607032100000000
  0.3346906200000000  0.2199749400000000  0.5627283100000000
  0.3208080400000000  0.5628571999999999  0.5597393000000001
  0.3351209800000000  0.8848878700000000  0.5587725700000000
  0.4945819300000001  0.0503704100000000  0.5580896700000000
  0.4998057900000000  0.3850109000000000  0.5586797400000000
  0.4967592400000000  0.7223389200000000  0.5604604600000000
  0.6716783700000000  0.2179579700000000  0.5604611300000000
  0.6607634000000000  0.5585132800000000  0.5580172799999999
  0.6674534300000000  0.8834801400000000  0.5608113500000000
  0.8274606799999999  0.0576068900000000  0.5590104000000000
  0.8301609400000000  0.3860700800000000  0.5616526200000000
  0.8250380100000000  0.7203564600000000  0.5603498099999999
  0.0013350300000000  0.5583236200000000  0.6837687200000001
  0.9871041699999999  0.8930438900000000  0.6893323700000000
  0.1594720700000000  0.0517266900000000  0.6866842300000000
  0.1694397900000000  0.3891615700000000  0.6880702199999998
  0.1606104100000000  0.7252585100000000  0.6865572200000000
  0.3350997700000000  0.5541836300000000  0.6823182800000001
  0.3260095600000000  0.8930660300000000  0.6841948100000000
  0.4949144699999999  0.0541386200000000  0.6830387100000000
  0.4945790300000000  0.3904261800000000  0.6834543199999998
  0.6633847400000000  0.5542211500000001  0.6820250200000000
  0.6643739400000001  0.8844496200000000  0.6883641800000000
  0.8189938900000000  0.0515980900000000  0.6866495700000000
  0.8312413500000000  0.3951073200000000  0.6877635800000000
  0.8219241300000000  0.7229462200000000  0.6877118400000000
  0.0122194200000000  0.2185149700000000  0.6874182900000000
  0.3418857700000000  0.2210431800000000  0.6835110900000000
  0.4923467800000000  0.7223906200000000  0.6880479200000000
  0.6659989400000000  0.2176031000000000  0.6852633900000000
  0.4919566300000000  0.4995665700000000  0.6201095700000000
  0.1736254900000000  0.1630620300000000  0.6261907700000000
  0.9797544600000000  0.0006020200000000  0.6229079500000000
  0.8352257500000000  0.8315358400000000  0.6254511800000000
  0.6632788700000000  0.6672611700000000  0.6217305800000000
  0.3303138000000000  0.3326395500000000  0.6237513800000000
  0.8406890100000000  0.1649946200000000  0.6247623000000000
  0.1633746500000000  0.5017577100000000  0.6219736500000000
  0.8396684500000000  0.5032049400000000  0.6208217400000000
  0.9920700100000001  0.3370799500000000  0.6272012500000000
  0.6609992900000000  0.3323192900000000  0.6232271100000000
  0.5011915000000000  0.1613725200000000  0.6208825000000000
  0.1650483300000000  0.8353141100000000  0.6247461800000000
  0.6576732400000000  0.9954740200000000  0.6210461300000000
  0.3243613900000000  0.6722377300000000  0.6234318500000000
  0.9914092400000000  0.6707911800000000  0.6229635800000000
  0.4996565400000000  0.8328598500000000  0.6239891100000000
  0.3273066100000000  0.0001605200000000  0.6197164700000000
