Mo  S  W 
 1.0000000000000000
     9.5549999999999997    0.0000000000000000    0.0000000000000000
     0.0000000000000000   16.5497450000000015    0.0000000000000000
     0.0000000000000000    0.0000000000000000   25.0000000000000000
  Mo   S   W
  18  72  18
Direct
  0.1567321300000000  0.0628605200000000  0.3743449800000000
  0.6651012600000000  0.5583172199999999  0.3762248899999999
  0.8223211700000000  0.3941976700000000  0.3740675900000000
  0.9928477600000000  0.2241606700000000  0.3756714900000000
  0.8231569900000000  0.0574534900000000  0.3748814300000000
  0.4975843200000000  0.3919225100000000  0.3764874300000000
  0.9966676600000000  0.8876670000000000  0.3727123100000000
  0.6660184200000000  0.8885699100000000  0.3753966800000000
  0.8308413300000000  0.7253665900000000  0.3697126199999999
  0.3309809500000000  0.5523119000000000  0.3748384600000000
  0.3345147400000000  0.8935878700000000  0.3773706200000000
  0.1649699200000000  0.3904209300000000  0.3745238500000000
  0.9947085200000001  0.5546847700000000  0.3718331500000000
  0.1634365500000000  0.7183897200000000  0.3729188800000000
  0.6635855300000000  0.2280910200000000  0.3738666700000000
  0.4918357500000000  0.0544211600000000  0.3807009200000000
  0.3251846400000000  0.2202249200000000  0.3790484200000000
  0.4925719300000000  0.7193012100000000  0.3750942200000000
  0.9814984300000001  0.3328052900000000  0.3116178100000000
  0.0083859000000000  0.6687967200000000  0.3093556800000000
  0.9946875300000000  0.9989887900000000  0.3160714400000000
  0.1565466800000000  0.1716375500000000  0.3146921000000000
  0.1652647300000000  0.4973515900000000  0.3110313700000000
  0.1772667500000000  0.8345161800000001  0.3156463500000000
  0.3315307800000000  0.3317852400000000  0.3160770800000000
  0.3306747900000000  0.6557796600000000  0.3099227600000000
  0.3274019100000000  0.0040834700000000  0.3130200500000000
  0.4834300700000000  0.1675412100000000  0.3143211600000000
  0.5027053500000001  0.5018698700000001  0.3127886900000000
  0.4964442700000000  0.8353999500000000  0.3103439300000000
  0.6540176900000000  0.3345871500000000  0.3108409100000000
  0.6657673500000000  0.6637921800000000  0.3126860600000000
  0.6490739900000000  0.0005514200000000  0.3132903200000000
  0.8326368200000001  0.1633862000000000  0.3122849500000000
  0.8295337200000000  0.5040363800000000  0.3123103400000000
  0.8276844700000000  0.8392794200000000  0.3119078400000000
  0.9905508100000000  0.6681892600000000  0.4296380200000000
  0.1572022500000000  0.1706111800000000  0.4395502900000000
  0.3350463000000000  0.3375932700000000  0.4387604900000000
  0.3178795200000000  0.6635282600000000  0.4369307700000000
  0.4994799699999999  0.1671927600000000  0.4386856200000000
  0.6604402100000000  0.3357885300000000  0.4366988900000000
  0.6699609500000000  0.6648703200000000  0.4368164000000000
  0.8258200500000000  0.1695404400000000  0.4332426500000001
  0.8326116400000000  0.8332369300000000  0.4357888100000000
  0.9852670700000000  0.3435665800000000  0.4352059400000000
  0.9938640099999999  0.0027634400000000  0.4374935100000000
  0.1520185900000000  0.5022698900000000  0.4361816600000000
  0.1587592600000000  0.8356195400000000  0.4364288399999999
  0.3237655600000000  0.0060179700000000  0.4411377800000000
  0.4993867300000000  0.4980200900000001  0.4367333700000000
  0.4945617300000000  0.8331990300000000  0.4375430000000000
  0.6629905699999999  0.9916303999999999  0.4385298800000000
  0.8291191800000000  0.4966806100000000  0.4367060699999999
  0.0045950300000000  0.2271940300000000  0.5636999499999999
  0.9966852899999999  0.5565908100000000  0.5624260500000000
  0.9962679800000001  0.8958911000000001  0.5652162600000000
  0.1628407600000000  0.0573976800000000  0.5632614300000000
  0.1679124800000000  0.3888300400000000  0.5634673500000000
  0.1822467300000000  0.7175129300000000  0.5602566700000000
  0.3263575400000000  0.2202168100000000  0.5576078900000000
  0.3214857500000000  0.5556262500000000  0.5626960100000000
  0.3294471400000000  0.8884524400000000  0.5641732200000000
  0.5053683800000000  0.0533317300000000  0.5567177700000000
  0.5020979900000000  0.3887158900000000  0.5605322500000000
  0.5178200700000000  0.7144557900000000  0.5628686800000000
  0.6736942700000000  0.2229623400000000  0.5627912100000000
  0.6628591700000001  0.5527619200000000  0.5618300100000000
  0.6682037400000000  0.8840093300000000  0.5621059900000001
  0.8445428200000000  0.0648680600000000  0.5631720099999999
  0.8435823800000000  0.3870059100000000  0.5635463900000000
  0.8327175700000000  0.7200575000000000  0.5660396000000000
  0.9982145600000001  0.5548544399999999  0.6899803000000000
  0.0062625200000000  0.8875801600000000  0.6853624000000000
  0.1681200800000000  0.0575147200000000  0.6890629200000000
  0.1812260200000000  0.3872867600000000  0.6878431900000002
  0.1820791200000000  0.7202352900000000  0.6897417100000000
  0.3305933000000000  0.5522946700000000  0.6871674600000000
  0.3360495100000000  0.8931982300000000  0.6856820100000001
  0.5061947300000000  0.0592412100000000  0.6851824900000000
  0.5126466800000000  0.3899430100000000  0.6848167500000000
  0.6630221200000000  0.5515400000000000  0.6887914000000001
  0.6650262900000000  0.8853557000000000  0.6870836199999999
  0.8329155600000000  0.0587034500000000  0.6890613400000000
  0.8353962100000000  0.3876030500000000  0.6900027300000001
  0.8420538299999999  0.7248684500000000  0.6882936100000001
  0.0049887900000000  0.2208864000000000  0.6927558900000002
  0.3398347300000000  0.2222391800000000  0.6857836300000000
  0.5069968800000000  0.7199947700000000  0.6909944600000000
  0.6620073400000001  0.2241498200000000  0.6872904800000000
  0.4914303199999999  0.4995324700000000  0.6236929500000000
  0.1620401400000000  0.1689657100000000  0.6256076100000000
  0.0058096900000000  0.0051918700000000  0.6273225600000000
  0.8331032400000000  0.8358337100000000  0.6252602200000000
  0.6795116200000000  0.6616496500000000  0.6291263700000000
  0.3480446500000000  0.3321502800000000  0.6222565500000000
  0.8357207800000001  0.1710411100000000  0.6276330500000000
  0.1594353300000000  0.4985147900000000  0.6262059100000000
  0.8315786600000000  0.4980343800000000  0.6249570200000000
  0.0023059900000000  0.3327178500000000  0.6287633600000000
  0.6768633500000000  0.3345988700000000  0.6235407800000000
  0.4970031699999999  0.1698136600000000  0.6204870900000000
  0.1675284200000000  0.8304555200000000  0.6240284000000000
  0.6790176400000000  0.9976911300000000  0.6234720000000000
  0.3462122300000000  0.6666929700000001  0.6245471900000000
  0.0115069300000000  0.6668127500000000  0.6257621600000000
  0.4991228400000001  0.8313490700000000  0.6234209600000000
  0.3338492600000000  0.0039744600000000  0.6213173400000001
