Mo  S  W 
 1.0000000000000000
     9.5549999999999997    0.0000000000000000    0.0000000000000000
     0.0000000000000000   16.5497450000000015    0.0000000000000000
     0.0000000000000000    0.0000000000000000   25.0000000000000000
  Mo   S   W
  18  72  18
Direct
  0.1688448100000000  0.0561495700000000  0.3709795299999999
  0.6688925999999999  0.5527320300000000  0.3745643100000000
  0.8216869000000000  0.3866507500000000  0.3748064900000000
  0.0018487900000000  0.2167719500000000  0.3716026100000000
  0.8278296700000000  0.0561217800000000  0.3726632000000000
  0.4930213200000000  0.3945511000000000  0.3722718700000000
  0.9922549299999999  0.8897094300000000  0.3748358500000000
  0.6635446200000000  0.8966903300000000  0.3747281300000000
  0.8262575800000000  0.7280048700000000  0.3780977100000000
  0.3306100700000000  0.5617699000000000  0.3742890500000000
  0.3318206800000000  0.8906695100000001  0.3732681600000000
  0.1612062000000000  0.3943073300000000  0.3685985900000000
  0.9941404300000000  0.5602888100000000  0.3755943500000000
  0.1662394900000000  0.7276161000000000  0.3774067200000000
  0.6612605700000000  0.2227408600000000  0.3717989100000000
  0.4982157500000000  0.0528791200000000  0.3671121100000000
  0.3220754900000000  0.2185267100000000  0.3711904300000001
  0.5059181200000000  0.7249967200000000  0.3737311500000000
  0.9989576899999999  0.3360197800000000  0.3081523200000000
  0.9826105100000000  0.6741607700000000  0.3152677100000000
  0.0002186100000000  0.9954670200000000  0.3111976100000000
  0.1680134900000000  0.1655786700000000  0.3079768100000000
  0.1595226900000000  0.5106845200000000  0.3104923100000000
  0.1587047700000000  0.8347458600000000  0.3132834600000000
  0.3332066600000000  0.3334325100000000  0.3073039600000000
  0.3347846600000000  0.6770930500000000  0.3140103700000000
  0.3268300500000000  0.9975531600000000  0.3061007700000000
  0.5042626300000000  0.1632539400000000  0.3049321600000000
  0.4935401900000000  0.5066738800000000  0.3106282300000000
  0.4981576699999999  0.8364250300000000  0.3123302900000000
  0.6581958700000000  0.3386500800000000  0.3046992700000000
  0.6691474400000000  0.6699108900000000  0.3130321300000000
  0.6747320200000000  0.0009033200000000  0.3051493400000000
  0.8311974700000000  0.1682461000000000  0.3134930900000000
  0.8367588200000000  0.4990886200000000  0.3128558700000000
  0.8242567500000000  0.8339856100000000  0.3134694200000000
  0.9972777900000001  0.6719498600000000  0.4420362600000000
  0.1586220500000000  0.1641188200000000  0.4354828800000000
  0.3270484200000000  0.3309005400000000  0.4312015500000000
  0.3404809600000000  0.6745241100000000  0.4367086000000000
  0.4959525400000000  0.1629719300000000  0.4299038700000001
  0.6524006800000000  0.3340277500000000  0.4349597100000000
  0.6566836600000000  0.6715116300000000  0.4351944300000000
  0.8222511800000000  0.1692547400000000  0.4335087600000000
  0.8160692500000000  0.8405299700000000  0.4391702200000001
  0.0002993300000000  0.3326743100000000  0.4336336100000000
  0.0013266000000000  0.0025099800000000  0.4333451800000001
  0.1663446400000000  0.5006479400000000  0.4378941400000000
  0.1741210200000000  0.8383707000000000  0.4362184500000000
  0.3335578800000000  0.0031617800000000  0.4338998600000000
  0.4945270500000001  0.5067656100000000  0.4347952400000000
  0.5016060900000000  0.8388889100000000  0.4348340800000001
  0.6598706100000000  0.0110916500000000  0.4388863000000000
  0.8300987399999999  0.5018373500000000  0.4356703000000000
  0.9978169700000001  0.2186573400000000  0.5622237700000000
  0.0077231500000000  0.5558808900000000  0.5606585600000000
  0.0094094100000000  0.8827177500000000  0.5644859400000000
  0.1736989800000000  0.0515498500000000  0.5636282400000000
  0.1639708800000000  0.3845339700000000  0.5612183300000000
  0.1593607700000000  0.7235011300000000  0.5664689400000000
  0.3428096800000000  0.2221442800000000  0.5663609900000000
  0.3478647200000000  0.5569089300000000  0.5623660000000000
  0.3392310900000000  0.8892180500000000  0.5603100400000000
  0.5053834500000000  0.0572212400000000  0.5636561800000000
  0.5061265800000000  0.3864231800000000  0.5685380600000000
  0.4943262500000000  0.7266301100000000  0.5627394999999999
  0.6671143800000000  0.2187131500000000  0.5637683999999999
  0.6757758500000000  0.5561911600000000  0.5646077400000000
  0.6713830000000000  0.8928885300000000  0.5654791700000000
  0.8244979000000000  0.0480072900000000  0.5622834400000000
  0.8262405400000000  0.3898590400000000  0.5651700900000000
  0.8367388800000000  0.7225907000000000  0.5632822000000000
  0.0119565300000000  0.5544653400000000  0.6893416400000000
  0.0090331600000000  0.8899643500000000  0.6879926600000000
  0.1742858500000000  0.0524327000000000  0.6848285300000001
  0.1552834700000000  0.3913716100000000  0.6898171100000000
  0.1598726200000000  0.7231616500000000  0.6873559400000001
  0.3381827000000000  0.5591440800000000  0.6883711800000001
  0.3379033300000000  0.8841210100000000  0.6881519400000000
  0.5002124300000000  0.0522462300000000  0.6947512500000000
  0.4909155300000000  0.3890273600000000  0.6885011200000000
  0.6713245600000000  0.5571830100000000  0.6881401600000000
  0.6755892800000000  0.8859664300000000  0.6886028900000000
  0.8370370600000000  0.0521269800000000  0.6887520899999999
  0.8297373800000000  0.3899908100000000  0.6883494600000000
  0.8307695700000000  0.7206383000000000  0.6891881600000000
  0.0006902200000000  0.2188731200000000  0.6859200200000000
  0.3286917500000000  0.2195896900000000  0.6911756300000000
  0.5032849700000001  0.7253421000000000  0.6900220300000000
  0.6725715000000000  0.2165543000000000  0.6894502400000000
  0.5093791700000000  0.5025179800000000  0.6270002700000000
  0.1739096200000000  0.1624799500000000  0.6232759900000000
  0.9979593700000000  0.9943772800000000  0.6234760700000000
  0.8447459500000000  0.8321108900000000  0.6269349200000000
  0.6623162100000000  0.6689903000000000  0.6237176600000000
  0.3254336100000000  0.3331140000000000  0.6283106600000000
  0.8354198700000000  0.1642797000000000  0.6247448799999999
  0.1807934200000000  0.5009499200000000  0.6240886800000000
  0.8405511200000000  0.5038728099999999  0.6282268000000000
  0.9960868600000001  0.3326829700000000  0.6233841700000000
  0.6616520400000000  0.3281888200000000  0.6286845000000000
  0.5066411800000000  0.1645716200000000  0.6284104700000001
  0.1742057400000000  0.8350504500000000  0.6252281200000001
  0.6619865800000000  0.9989287200000001  0.6271224800000000
  0.3310953000000000  0.6689653300000000  0.6257548800000000
  0.9921191200000001  0.6680036600000000  0.6262938400000000
  0.5042032100000000  0.8372376500000001  0.6272403800000000
  0.3423192300000000  0.9962836599999999  0.6275034100000000
