Mo  S  W 
 1.0000000000000000
     9.5549999999999997    0.0000000000000000    0.0000000000000000
     0.0000000000000000   16.5497450000000015    0.0000000000000000
     0.0000000000000000    0.0000000000000000   25.0000000000000000
  Mo   S   W
  18  72  18
Direct
  0.1684662000000000  0.0590282600000000  0.3744046900000000
  0.6550705000000000  0.5600291600000000  0.3752260100000000
  0.8255026100000000  0.3929385900000000  0.3776576600000000
  0.9945871500000000  0.2255562300000000  0.3778613200000000
  0.8329693900000000  0.0592684800000000  0.3775272100000000
  0.5040266700000000  0.3849571400000000  0.3745231700000000
  0.9980125600000000  0.8879497200000001  0.3757824400000000
  0.6676658300000000  0.8887794900000000  0.3713259700000001
  0.8313360100000000  0.7179641800000000  0.3715907300000000
  0.3301654000000000  0.5547084600000000  0.3711063300000000
  0.3346289800000000  0.8897759300000000  0.3708293300000001
  0.1701841700000000  0.3902348400000000  0.3759575600000000
  0.0084384100000000  0.5520291800000000  0.3755145400000000
  0.1615646600000000  0.7207807300000000  0.3770846400000000
  0.6731874600000000  0.2293369600000000  0.3748968200000000
  0.4972201600000000  0.0570824700000000  0.3740149500000001
  0.3383436200000000  0.2249930500000000  0.3739157499999999
  0.5011987300000000  0.7220620500000000  0.3688150000000000
  0.9942931499999998  0.3357514000000000  0.3172175900000000
  0.0008486300000000  0.6645106600000000  0.3086183000000000
  0.9962128600000000  0.0036254300000000  0.3121149600000000
  0.1598580100000000  0.1709901300000000  0.3127412300000000
  0.1633701400000000  0.4977018500000001  0.3118277400000000
  0.1698210300000000  0.8304575600000000  0.3118647900000000
  0.3332678300000000  0.3382002600000000  0.3137295600000000
  0.3221827500000000  0.6668891700000000  0.3127121500000000
  0.3284618500000000  0.0062012900000000  0.3133257500000000
  0.4934630600000000  0.1749312400000000  0.3142800800000000
  0.5055417200000000  0.4941912300000000  0.3109806600000000
  0.5072323000000000  0.8378582600000000  0.3065417500000000
  0.6734686400000000  0.3395282600000000  0.3130525200000000
  0.6695065900000000  0.6649426700000000  0.3090633800000000
  0.6627565399999999  0.0050706400000000  0.3133039900000000
  0.8306729600000000  0.1691772200000000  0.3152112700000000
  0.8193677400000000  0.5012202800000000  0.3153260500000000
  0.8329722200000000  0.8395923700000000  0.3144504300000000
  0.9987241300000002  0.6672160400000000  0.4366208900000000
  0.1667596000000000  0.1712493300000000  0.4407035100000000
  0.3403396600000000  0.3375826400000000  0.4343921800000000
  0.3288658900000000  0.6670123400000000  0.4351096700000000
  0.5049848600000000  0.1698456700000000  0.4350914700000000
  0.6681071800000000  0.3348406800000000  0.4391543600000000
  0.6603220900000000  0.6707594600000000  0.4372945699999999
  0.8333007800000000  0.1719505400000000  0.4424706700000000
  0.8220809000000000  0.8284135400000000  0.4360337100000000
  0.9880709100000000  0.3375783900000000  0.4376092900000000
  0.0012171500000000  0.0055745400000000  0.4335540600000000
  0.1710933900000000  0.5021581300000000  0.4398570800000000
  0.1728314800000000  0.8370305900000000  0.4366760800000000
  0.3368169700000000  0.9997157200000001  0.4356431700000000
  0.4884244500000000  0.5011589000000000  0.4373648800000000
  0.5080881400000000  0.8304584699999999  0.4315735300000000
  0.6565932500000000  0.9981912600000000  0.4367611200000001
  0.8275460300000000  0.5069110800000000  0.4362693600000000
  0.9993831699999999  0.2284020800000000  0.5639247700000000
  0.9978685000000000  0.5603336500000000  0.5629179500000000
  0.9964172400000000  0.8872423800000000  0.5632355900000000
  0.1530919800000000  0.0568835900000000  0.5573588100000000
  0.1590558400000000  0.3905019600000000  0.5641586000000000
  0.1592272900000000  0.7219568800000000  0.5649731000000000
  0.3430032500000000  0.2229770700000000  0.5608586500000000
  0.3407349200000000  0.5532284200000001  0.5595944400000000
  0.3382081100000000  0.8895309000000000  0.5628287800000000
  0.5070151899999999  0.0530845600000000  0.5633559700000000
  0.5014751300000000  0.3797449300000000  0.5602081799999999
  0.4970852100000000  0.7202885400000000  0.5636514300000000
  0.6739073200000000  0.2283170400000000  0.5632920100000000
  0.6784539900000000  0.5562683300000000  0.5621684100000000
  0.6735203800000000  0.8827828300000000  0.5655587300000000
  0.8257168499999999  0.0573347900000000  0.5632895999999999
  0.8307478100000000  0.3825355600000000  0.5637653600000000
  0.8318112300000000  0.7197580900000000  0.5691141400000000
  0.0007498000000000  0.5532984100000000  0.6896902499999998
  0.0031605800000000  0.8894420800000000  0.6895338400000000
  0.1576742600000000  0.0576397400000000  0.6837042400000000
  0.1668792100000000  0.3945468300000000  0.6865162200000000
  0.1707652800000000  0.7266915400000000  0.6864411799999999
  0.3361234500000000  0.5545120000000000  0.6835264000000000
  0.3424985700000000  0.8914631800000000  0.6890403500000000
  0.4979479500000000  0.0533091400000000  0.6839153800000000
  0.4905970800000000  0.3926528900000000  0.6908690300000001
  0.6658475000000000  0.5494358300000000  0.6864962600000000
  0.6748595300000000  0.8883424599999999  0.6902107600000000
  0.8362297600000000  0.0561489800000000  0.6859477800000000
  0.8256424400000000  0.3885977700000000  0.6892104500000000
  0.8285222800000001  0.7181129700000000  0.6900074200000000
  0.0118902900000000  0.2284833500000000  0.6868874000000001
  0.3346150800000000  0.2187327900000000  0.6850680099999999
  0.5016220100000000  0.7185809100000000  0.6892742599999999
  0.6681328200000000  0.2172271700000000  0.6897456600000001
  0.5038163400000000  0.4970759400000000  0.6226950400000000
  0.1700556200000000  0.1708141300000000  0.6216035700000000
  0.9946124100000000  0.0028283400000000  0.6225552400000000
  0.8360902300000000  0.8325806100000001  0.6306566100000000
  0.6640265200000000  0.6628195000000000  0.6258213200000000
  0.3311677700000000  0.3344152700000000  0.6265548200000000
  0.8428284600000001  0.1657433000000000  0.6255423200000000
  0.1661854600000000  0.5031156600000000  0.6224902900000000
  0.8359994300000000  0.4973592000000000  0.6259073600000000
  0.9917970900000002  0.3363435300000000  0.6266978000000000
  0.6595182900000000  0.3343901600000000  0.6278180000000000
  0.5013314200000000  0.1671266900000000  0.6248803200000000
  0.1738662000000000  0.8360737600000000  0.6264053100000000
  0.6684612000000000  0.9970070400000001  0.6243671900000000
  0.3338780300000000  0.6654672700000001  0.6246013800000000
  0.0012096300000000  0.6659803700000000  0.6276722600000000
  0.5111922000000000  0.8293981300000000  0.6254079100000000
  0.3251764500000000  0.0006186100000000  0.6215838200000000
