Mo  S  W 
 1.0000000000000000
     9.5549999999999997    0.0000000000000000    0.0000000000000000
     0.0000000000000000   16.5497450000000015    0.0000000000000000
     0.0000000000000000    0.0000000000000000   25.0000000000000000
  Mo   S   W
  18  72  18
Direct
  0.1676265800000000  0.0513029200000000  0.3813407800000000
  0.6608791700000000  0.5539901699999999  0.3798899400000000
  0.8287734500000000  0.3889939800000000  0.3769807000000000
  0.9921792900000000  0.2172713200000000  0.3755379900000000
  0.8344868800000000  0.0532976100000000  0.3748101599999999
  0.4915995100000001  0.3886289800000000  0.3820954100000000
  0.9928925199999999  0.8911295299999999  0.3747620700000000
  0.6616113900000000  0.8878136200000000  0.3787655100000001
  0.8372398100000000  0.7220133100000000  0.3775926000000000
  0.3293282300000000  0.5524152400000000  0.3803753800000000
  0.3352747200000000  0.8855885900000000  0.3784819200000000
  0.1558446800000000  0.3843038100000000  0.3769234400000000
  0.9992399300000000  0.5543305700000000  0.3769814800000000
  0.1623307200000000  0.7189247200000000  0.3775954500000001
  0.6610123100000000  0.2206275700000000  0.3762070200000000
  0.4868739300000000  0.0532529900000000  0.3758332700000000
  0.3247304700000000  0.2203881400000000  0.3781845000000000
  0.5001426900000000  0.7238574900000000  0.3797267700000000
  0.9925876600000000  0.3322589800000000  0.3110825900000000
  0.9947331300000000  0.6686679900000000  0.3091325000000000
  0.0102151500000000  0.0038037600000000  0.3135701200000000
  0.1603408900000000  0.1670304000000000  0.3127529100000000
  0.1644869300000000  0.5016616600000000  0.3148024400000000
  0.1592843600000000  0.8311313000000000  0.3145530900000000
  0.3328081900000000  0.3335119900000000  0.3203982900000000
  0.3243256300000000  0.6642396699999999  0.3180716600000000
  0.3259588700000000  0.9955456999999999  0.3180316500000000
  0.5004405300000000  0.1640592600000000  0.3133711300000000
  0.4890937400000000  0.4996771600000001  0.3139413300000000
  0.4941471100000000  0.8331876200000000  0.3165746600000000
  0.6609529300000000  0.3320532400000000  0.3161394300000000
  0.6606842300000000  0.6648932000000000  0.3166622200000000
  0.6611284600000000  0.9963469799999999  0.3176324100000000
  0.8338640600000000  0.1648090300000000  0.3092549200000000
  0.8269368100000000  0.5027700700000000  0.3172679200000000
  0.8220458899999999  0.8296649500000000  0.3126441000000000
  0.0056176100000000  0.6678203300000000  0.4401810200000000
  0.1515622200000000  0.1599221000000000  0.4409646500000000
  0.3316776900000000  0.3311792900000000  0.4449429200000000
  0.3248063800000000  0.6626333300000000  0.4392825000000001
  0.4837994899999999  0.1667438700000000  0.4365642600000000
  0.6696473700000000  0.3367653300000000  0.4415220600000000
  0.6781567200000000  0.6635034100000000  0.4429037500000000
  0.8371365000000000  0.1555184200000000  0.4387697600000000
  0.8355284700000000  0.8397349800000000  0.4412349000000000
  0.9857467900000000  0.3291439300000000  0.4365537300000000
  0.9976139500000000  0.9909490800000000  0.4395618400000000
  0.1558522500000000  0.4915868899999999  0.4387167200000001
  0.1555947100000000  0.8319927200000000  0.4377023000000000
  0.3268121600000000  0.9961819999999999  0.4410369700000000
  0.5051738200000000  0.4982584900000001  0.4439175499999999
  0.4999065400000001  0.8371554500000000  0.4429855500000000
  0.6686528200000000  0.0009541900000000  0.4389434700000001
  0.8329487000000000  0.5018884100000000  0.4409012400000000
  0.9970048000000000  0.2247143200000000  0.5650620500000000
  0.9987507200000001  0.5588772400000001  0.5596600200000000
  0.9887894600000000  0.8930019200000000  0.5562069900000000
  0.1671145500000000  0.0571092000000000  0.5605461600000000
  0.1752007700000000  0.3859600800000000  0.5615578100000000
  0.1859567100000000  0.7235159500000000  0.5609579700000000
  0.3413378500000000  0.2198425900000000  0.5613446100000000
  0.3306161500000000  0.5600576700000000  0.5588353300000000
  0.3313586600000000  0.8926178500000000  0.5581588200000001
  0.5052034700000000  0.0550328900000000  0.5594140500000000
  0.5031999300000000  0.3865392600000000  0.5617756699999999
  0.5135704300000000  0.7209760800000000  0.5647452300000000
  0.6764040000000000  0.2238630200000000  0.5606610200000000
  0.6615551800000000  0.5599198000000000  0.5618075400000000
  0.6642942500000000  0.8918420800000000  0.5622496600000000
  0.8384871900000000  0.0581500400000000  0.5627055800000000
  0.8489085700000000  0.3880876400000000  0.5621390400000000
  0.8304453600000000  0.7241161100000000  0.5598889700000000
  0.9934451500000000  0.5572354000000000  0.6820466800000000
  0.0059158900000000  0.8922399400000000  0.6857384200000000
  0.1720960500000000  0.0558573800000000  0.6849006100000000
  0.1752683600000000  0.3991393900000000  0.6855841300000001
  0.1680171100000000  0.7284546800000000  0.6830490900000001
  0.3273600000000000  0.5576111800000000  0.6836525300000001
  0.3324915500000000  0.8938215300000000  0.6868868400000000
  0.5072410400000000  0.0535435100000000  0.6829951800000000
  0.4997699000000000  0.3912902000000000  0.6862063600000000
  0.6580054100000000  0.5519292600000000  0.6837802700000001
  0.6730903600000000  0.8866175200000000  0.6880233000000000
  0.8320241900000001  0.0574224000000000  0.6868902900000000
  0.8381939900000002  0.3916300800000000  0.6867868600000000
  0.8449513000000001  0.7227842400000000  0.6884553900000000
  0.0001687600000000  0.2205371600000000  0.6888877499999999
  0.3383483500000000  0.2162405600000000  0.6827301900000000
  0.5057062700000000  0.7259149499999999  0.6870380800000000
  0.6595143900000000  0.2281896300000000  0.6895336399999999
  0.4925458400000001  0.5022365800000000  0.6215796300000000
  0.1663391200000000  0.1718252900000000  0.6229961300000000
  0.0080628800000000  0.0029727300000000  0.6237093600000000
  0.8301348800000000  0.8339909000000000  0.6241717400000000
  0.6801948700000000  0.6666672300000001  0.6261417700000000
  0.3386385300000000  0.3312045000000000  0.6230162600000000
  0.8248333500000000  0.1677818800000000  0.6277070900000000
  0.1635069100000000  0.5035457600000000  0.6193902200000000
  0.8265225000000000  0.5034488700000000  0.6214780100000000
  0.0140882600000000  0.3337426900000000  0.6258167400000000
  0.6772322200000001  0.3353095800000000  0.6239978400000000
  0.5085791800000000  0.1639209200000000  0.6216285499999999
  0.1616548400000000  0.8381448100000000  0.6197880099999999
  0.6649187100000000  0.0004690100000000  0.6232896100000000
  0.3394970100000000  0.6702595700000000  0.6228308100000000
  0.0089484900000000  0.6717095400000000  0.6200907800000000
  0.5008508500000000  0.8373729900000000  0.6250672300000000
  0.3428279400000000  0.0016324800000000  0.6211039900000001
