Mo  S  W 
 1.0000000000000000
     9.5549999999999997    0.0000000000000000    0.0000000000000000
     0.0000000000000000   16.5497450000000015    0.0000000000000000
     0.0000000000000000    0.0000000000000000   25.0000000000000000
  Mo   S   W
  18  72  18
Direct
  0.1705108400000000  0.0582273200000000  0.3726568000000000
  0.6729083100000000  0.5564393700000000  0.3745630600000000
  0.8464509400000000  0.3900733300000000  0.3742427500000000
  0.0036826600000000  0.2298632500000000  0.3705874100000000
  0.8390705999999999  0.0546963000000000  0.3718214800000000
  0.5123753300000000  0.3899968600000000  0.3762726600000000
  0.0101938600000000  0.8870690400000000  0.3743666500000000
  0.6733886600000000  0.8863578300000000  0.3742165600000000
  0.8335561400000000  0.7189680500000000  0.3762111000000000
  0.3312181500000000  0.5484346600000000  0.3802577200000000
  0.3341013700000000  0.8917434800000000  0.3780642200000000
  0.1777293300000000  0.3879062300000000  0.3759830100000000
  0.0030436100000000  0.5526355300000000  0.3777501100000000
  0.1775323900000000  0.7173618300000000  0.3746688500000000
  0.6700783900000000  0.2240676500000000  0.3766907200000000
  0.5145159500000001  0.0602644400000000  0.3757847700000000
  0.3488379300000000  0.2220032200000000  0.3731401300000000
  0.5016367300000000  0.7173819100000000  0.3781705499999999
  0.0111369300000000  0.3451647600000000  0.3121690800000000
  0.0007111800000000  0.6607614200000000  0.3145702100000000
  0.0067567700000000  0.0007996000000000  0.3097944400000000
  0.1803797900000000  0.1715077300000000  0.3084651700000000
  0.1683202200000000  0.5010676300000000  0.3176383400000000
  0.1661377200000000  0.8289982299999999  0.3125689600000000
  0.3470760700000000  0.3326844800000000  0.3125848500000000
  0.3337817700000000  0.6606129500000000  0.3151838100000000
  0.3436997900000000  0.0012803300000000  0.3170527300000000
  0.5240528500000000  0.1629190200000000  0.3141653600000000
  0.5009862600000000  0.4987530500000000  0.3155722900000000
  0.4924444700000000  0.8316893400000001  0.3180797800000000
  0.6734039200000000  0.3386421600000000  0.3154458700000000
  0.6605364900000000  0.6626395000000000  0.3120755200000000
  0.6759101900000000  0.9924404100000002  0.3132299700000000
  0.8392185400000000  0.1739675800000000  0.3107851200000000
  0.8359472000000000  0.4976590299999999  0.3100611000000000
  0.8372202399999999  0.8280642499999999  0.3145607500000000
  0.0089947200000000  0.6649752799999999  0.4380575200000000
  0.1606456300000000  0.1658240500000000  0.4364005800000000
  0.3424374300000000  0.3314554300000000  0.4344122000000000
  0.3395072600000000  0.6585459200000000  0.4404515400000000
  0.5127819300000001  0.1709237600000000  0.4407587800000000
  0.6871429600000000  0.3418843000000000  0.4366123200000000
  0.6749989000000000  0.6629287900000000  0.4397033100000000
  0.8444646500000001  0.1685598600000000  0.4351630700000000
  0.8488646899999999  0.8334830100000000  0.4343266399999999
  0.0109467300000000  0.3320229200000000  0.4367685500000000
  0.0087083100000000  0.0043849700000000  0.4330378500000000
  0.1712707500000000  0.4960516300000000  0.4422061700000001
  0.1725296900000000  0.8263958800000000  0.4389115900000000
  0.3328062800000000  0.0087354700000000  0.4366889200000000
  0.5140698700000000  0.4972817999999999  0.4412081200000000
  0.4999364400000000  0.8381521900000000  0.4417836000000000
  0.6809637500000000  0.9987061400000000  0.4376798300000000
  0.8345506800000000  0.4996860800000000  0.4366010799999999
  0.0040760000000000  0.2203648700000000  0.5631210200000000
  0.9995881100000000  0.5538507400000000  0.5593871400000000
  0.0121462800000000  0.8907320000000000  0.5582533000000000
  0.1571781600000000  0.0529423800000000  0.5637488000000000
  0.1556096100000000  0.3923583700000000  0.5611191200000000
  0.1622301100000000  0.7205725700000000  0.5599725100000000
  0.3258690900000000  0.2176318700000000  0.5626686500000000
  0.3345146200000000  0.5561417400000001  0.5630264600000000
  0.3386331000000000  0.8936785400000000  0.5625611100000000
  0.4908008200000001  0.0525823200000000  0.5653479700000000
  0.4838062700000000  0.3894873000000000  0.5627326900000000
  0.4891849000000000  0.7262611700000000  0.5632552600000000
  0.6639075900000000  0.2225240200000000  0.5617262300000000
  0.6624609700000000  0.5549463500000000  0.5650901100000000
  0.6755521100000000  0.8934879000000000  0.5627610600000000
  0.8182897300000000  0.0587885300000000  0.5635806100000000
  0.8231653000000000  0.3921801800000000  0.5582713400000000
  0.8261952500000000  0.7229667300000000  0.5580547900000000
  0.0011470900000000  0.5597847100000000  0.6857864900000000
  0.0047055900000000  0.8847456400000000  0.6874120800000000
  0.1508851400000000  0.0535755800000000  0.6898418900000000
  0.1496461000000000  0.3861837800000000  0.6841823200000000
  0.1512052400000000  0.7221306600000000  0.6844374500000001
  0.3245694100000000  0.5540351800000000  0.6906997900000000
  0.3280001900000000  0.8918389100000000  0.6912861100000000
  0.4961358300000000  0.0550853900000000  0.6892495500000000
  0.4908262800000000  0.3893637300000000  0.6890755100000000
  0.6783111500000000  0.5561438500000000  0.6862919300000000
  0.6703669900000000  0.8906807000000000  0.6861263300000000
  0.8208295900000000  0.0578995100000000  0.6873792299999999
  0.8230025600000000  0.3897591300000000  0.6817811000000000
  0.8387813100000000  0.7271221200000000  0.6845766500000000
  0.9936850699999999  0.2242968900000000  0.6874465300000000
  0.3394338400000000  0.2208838700000000  0.6879809200000000
  0.4969410800000000  0.7246220400000000  0.6871610200000000
  0.6686204700000000  0.2287028900000000  0.6869742599999999
  0.4940518900000000  0.5012521700000000  0.6271690200000000
  0.1671417600000000  0.1663084600000000  0.6263755300000000
  0.9886024500000000  0.0010260000000000  0.6255737400000000
  0.8386230099999999  0.8360971500000000  0.6202909300000000
  0.6648663600000000  0.6713075700000000  0.6262488600000000
  0.3213386200000000  0.3336061500000000  0.6242932000000000
  0.8329026600000000  0.1667290400000000  0.6249215500000000
  0.1629375600000000  0.4979333700000000  0.6245846800000000
  0.8389006100000000  0.5029062600000000  0.6219403600000000
  0.9900052900000000  0.3317535500000000  0.6232291900000000
  0.6581195800000000  0.3373991100000000  0.6234531200000000
  0.4980215500000000  0.1654169800000000  0.6259488000000000
  0.1659743400000000  0.8308286400000000  0.6209910500000000
  0.6548628200000000  0.0030491200000000  0.6260053000000000
  0.3222691800000000  0.6683404800000000  0.6271565000000000
  0.9916882299999999  0.6684086600000000  0.6202788500000000
  0.5048136200000000  0.8362746400000000  0.6255698700000000
  0.3254935900000000  0.0015609000000000  0.6287016200000000
