Mo  S  W 
 1.0000000000000000
     9.5549999999999997    0.0000000000000000    0.0000000000000000
     0.0000000000000000   16.5497450000000015    0.0000000000000000
     0.0000000000000000    0.0000000000000000   25.0000000000000000
  Mo   S   W
  18  72  18
Direct
  0.1606488500000000  0.0544220400000000  0.3704678000000000
  0.6670048500000000  0.5504352300000001  0.3792795300000000
  0.8260260200000000  0.3772394200000000  0.3767378400000000
  0.9963859799999999  0.2214202100000000  0.3743057400000000
  0.8263696699999999  0.0526012100000000  0.3751348500000000
  0.4976962000000000  0.3870652600000000  0.3743269500000000
  0.0001165800000000  0.8834978300000000  0.3781854200000000
  0.6704491900000000  0.8840013799999999  0.3763243600000001
  0.8231581800000000  0.7200693900000000  0.3787929900000001
  0.3301839100000000  0.5535418600000001  0.3790632700000000
  0.3287316000000000  0.8865986400000000  0.3778852900000000
  0.1638901500000000  0.3897856800000000  0.3768419400000000
  0.0025244300000000  0.5545777800000000  0.3787672400000000
  0.1679697200000000  0.7218942600000000  0.3810978400000000
  0.6620597400000000  0.2204942900000000  0.3733929999999999
  0.4985121800000000  0.0537787100000000  0.3745566499999999
  0.3292607300000000  0.2168564000000000  0.3754173100000000
  0.5056225700000000  0.7169783000000000  0.3774987900000000
  0.9980758699999999  0.3361980100000000  0.3129294300000000
  0.9962685600000000  0.6660964600000000  0.3207460000000000
  0.9948164500000000  0.9965064900000000  0.3145711400000000
  0.1579260600000000  0.1700401900000000  0.3107005500000000
  0.1691799000000000  0.5093858400000000  0.3141626100000000
  0.1695394600000000  0.8284688100000001  0.3193173700000000
  0.3280850400000000  0.3304035900000000  0.3159285900000000
  0.3298171500000000  0.6690201700000000  0.3168266100000000
  0.3227969400000000  0.9956914700000000  0.3102136400000000
  0.5027794300000000  0.1606714700000000  0.3095459400000000
  0.4915218400000000  0.5018513500000000  0.3151950000000000
  0.4971669400000000  0.8323993200000001  0.3118549000000000
  0.6576198000000000  0.3385657500000000  0.3129770400000000
  0.6615760400000000  0.6642880500000000  0.3163368400000000
  0.6658936600000001  0.9942971500000001  0.3125812100000000
  0.8349943200000000  0.1687128600000000  0.3126041000000000
  0.8343869800000000  0.4940601700000000  0.3204343500000000
  0.8376492500000000  0.8283434700000000  0.3168472500000000
  0.9945908000000000  0.6671992500000000  0.4385029900000000
  0.1554469100000000  0.1580811800000000  0.4361805000000000
  0.3349004000000000  0.3267855800000000  0.4402848300000000
  0.3478171100000000  0.6639875300000000  0.4425688400000000
  0.4988858400000000  0.1638447900000000  0.4356794100000000
  0.6576890100000000  0.3358122500000000  0.4382966200000000
  0.6697578500000000  0.6673643200000000  0.4420865000000000
  0.8190475300000000  0.1666260600000000  0.4360705200000000
  0.8336287800000000  0.8332239400000000  0.4398534300000000
  0.9970995100000001  0.3311234500000000  0.4380744000000000
  0.0024809000000000  0.9981578299999999  0.4365959200000000
  0.1666352600000000  0.4967827300000001  0.4409856800000000
  0.1793434000000000  0.8316253000000000  0.4436723800000000
  0.3171113500000000  0.0030411200000000  0.4372475600000000
  0.5025349900000000  0.4937340100000000  0.4369856900000000
  0.5069295600000000  0.8355714800000000  0.4364585700000000
  0.6593292700000000  0.9981676100000000  0.4368764700000000
  0.8340327700000000  0.4918213900000000  0.4420803400000001
  0.0108678400000000  0.2249900600000000  0.5588610899999999
  0.0050347900000000  0.5531932500000000  0.5632362300000000
  0.0116503200000000  0.8902313800000000  0.5661221900000000
  0.1613147600000000  0.0577916000000000  0.5647137300000000
  0.1519242500000000  0.3910415500000000  0.5595365300000000
  0.1612515800000000  0.7215456800000000  0.5580025199999999
  0.3295550000000000  0.2256464800000000  0.5588109500000000
  0.3414555600000000  0.5484151800000000  0.5593208800000000
  0.3324213400000000  0.8916595200000000  0.5598514200000000
  0.5021356000000000  0.0628166300000000  0.5624405600000000
  0.5075412300000000  0.3921187600000000  0.5587099300000000
  0.4959550900000000  0.7205394500000000  0.5552315600000000
  0.6732917400000000  0.2220537500000000  0.5628390700000000
  0.6816446200000000  0.5528624200000000  0.5602906500000000
  0.6705704100000000  0.9004909000000000  0.5621963500000000
  0.8342916000000000  0.0616167000000000  0.5636324800000000
  0.8236667900000000  0.3926953800000000  0.5615131500000000
  0.8403547099999998  0.7238818100000000  0.5629823900000001
  0.0092572300000000  0.5530831000000000  0.6899087100000000
  0.0146536200000000  0.8886099800000000  0.6865397800000000
  0.1674130700000000  0.0552460300000000  0.6899597600000000
  0.1594266600000000  0.3870423800000000  0.6853537100000000
  0.1644478600000000  0.7178502900000000  0.6851850800000000
  0.3380278100000000  0.5560437900000000  0.6864316499999999
  0.3530966200000000  0.8897441000000000  0.6825725100000000
  0.4928072400000000  0.0632315800000000  0.6877199100000000
  0.4966864400000000  0.3945390700000000  0.6842720700000000
  0.6718682400000000  0.5609152900000000  0.6874466100000000
  0.6749824600000000  0.8876784599999999  0.6848116700000000
  0.8303038200000000  0.0642008800000000  0.6892175400000000
  0.8198752000000000  0.3878104800000000  0.6861321800000000
  0.8265120100000000  0.7240834500000000  0.6846494300000000
  0.0052711900000000  0.2259728900000000  0.6861969299999999
  0.3291661600000000  0.2344687300000000  0.6894695600000000
  0.4935679900000001  0.7242280200000000  0.6810375200000000
  0.6677649400000000  0.2267045000000000  0.6855906500000001
  0.5083491900000000  0.5012295900000000  0.6235245000000000
  0.1712617000000000  0.1678285700000000  0.6262900600000000
  0.9964226499999999  0.0041933800000000  0.6274792500000000
  0.8432444700000000  0.8381131200000000  0.6228189500000000
  0.6585706700000000  0.6694200800000000  0.6202480600000000
  0.3327568600000000  0.3398873900000000  0.6207538700000000
  0.8479770100000000  0.1722515300000000  0.6241794000000001
  0.1719885400000000  0.4974701600000000  0.6259463700000000
  0.8425736600000000  0.5000869000000000  0.6276473100000000
  0.9892891200000001  0.3361598200000000  0.6229148799999999
  0.6613102900000000  0.3357391700000000  0.6231649800000000
  0.4948271700000000  0.1779814000000000  0.6243770800000000
  0.1772513100000000  0.8315642700000000  0.6235124900000000
  0.6707635800000000  0.0072817500000000  0.6255076600000000
  0.3335604100000000  0.6643595200000000  0.6201795400000000
  0.9950665100000001  0.6630969400000000  0.6262291700000000
  0.5031573200000000  0.8335280600000000  0.6193689100000001
  0.3282116500000000  0.0043053100000000  0.6257492099999999
