Mo  S  W 
 1.0000000000000000
     9.5549999999999997    0.0000000000000000    0.0000000000000000
     0.0000000000000000   16.5497450000000015    0.0000000000000000
     0.0000000000000000    0.0000000000000000   25.0000000000000000
  Mo   S   W
  18  72  18
Direct
  0.1661047100000000  0.0600119700000000  0.3771686599999999
  0.6692607100000000  0.5509675300000000  0.3764686900000001
  0.8441137500000000  0.3898793400000000  0.3783360500000000
  0.0031538200000000  0.2273766200000000  0.3759479900000000
  0.8441360100000000  0.0587567600000000  0.3783965699999999
  0.5025762400000000  0.3917280700000000  0.3749624000000000
  0.0076055600000000  0.8859688600000000  0.3820723200000000
  0.6733998600000000  0.8881669800000001  0.3766907099999999
  0.8482552700000001  0.7245546500000000  0.3792492300000000
  0.3404472200000000  0.5580959300000000  0.3783979800000000
  0.3415970500000000  0.8909870700000000  0.3802812300000000
  0.1733679500000000  0.3870897500000000  0.3753720400000000
  0.0039016100000000  0.5585710100000000  0.3790085700000000
  0.1737432900000000  0.7204932700000000  0.3771181200000000
  0.6698663800000000  0.2274869500000000  0.3798942000000000
  0.5042313100000000  0.0524536300000000  0.3774833500000000
  0.3329350000000000  0.2193512600000000  0.3758710500000000
  0.5054533700000000  0.7240016700000000  0.3771932600000000
  0.0022795800000000  0.3347940900000000  0.3120821900000000
  0.0028651200000000  0.6729626800000000  0.3121931900000000
  0.0036786300000000  0.9993594000000000  0.3190871400000000
  0.1653705500000000  0.1725645000000000  0.3133985000000000
  0.1708126400000000  0.5023756700000001  0.3159517800000000
  0.1733205500000000  0.8384173200000000  0.3186644200000000
  0.3444347600000000  0.3322692800000000  0.3130026600000000
  0.3367665200000000  0.6677017400000000  0.3116262700000000
  0.3336630900000000  0.0001357300000000  0.3171610100000000
  0.5082066400000000  0.1665284700000000  0.3152924600000000
  0.4944441100000000  0.5056260400000000  0.3152625600000000
  0.5122176600000000  0.8304484500000000  0.3185337600000000
  0.6692799800000000  0.3291230300000000  0.3128341900000000
  0.6770915100000000  0.6701749700000000  0.3174052800000000
  0.6773585000000000  0.0008659000000000  0.3163759900000000
  0.8311201800000000  0.1740562700000000  0.3141382200000000
  0.8382091900000000  0.4979233300000000  0.3143387100000000
  0.8324302000000000  0.8282115799999999  0.3129275200000000
  0.0144759200000000  0.6692286900000000  0.4426115500000000
  0.1579460400000000  0.1687562100000000  0.4402459900000000
  0.3446181400000000  0.3362456200000000  0.4387885300000000
  0.3459809400000000  0.6667829400000000  0.4388561600000000
  0.4853173700000000  0.1710122600000000  0.4399210499999999
  0.6715835600000000  0.3397258200000000  0.4422684600000000
  0.6793776600000000  0.6673872400000000  0.4403474900000000
  0.8366947900000000  0.1718046200000000  0.4393139699999999
  0.8356049100000000  0.8410267800000000  0.4444009899999999
  0.0089754300000000  0.3315106600000000  0.4418901700000000
  0.0062736400000000  0.0020613500000000  0.4467327799999999
  0.1673696200000000  0.5000144800000000  0.4385516100000000
  0.1894464700000000  0.8291150100000000  0.4410765200000000
  0.3352165300000000  0.0088808200000000  0.4405963400000000
  0.5037272000000000  0.4972794700000000  0.4441612400000000
  0.5165538300000000  0.8343968100000000  0.4405208900000000
  0.6689793800000000  0.0020428000000000  0.4366883000000000
  0.8424121700000000  0.4995782300000000  0.4381713800000000
  0.0030719800000000  0.2275906000000000  0.5641277800000000
  0.0006635700000000  0.5625300600000001  0.5592933600000000
  0.9932792900000001  0.8878805300000000  0.5591983200000000
  0.1509166900000000  0.0536438900000000  0.5611119800000000
  0.1586569100000000  0.3890890100000000  0.5611769800000000
  0.1542462400000000  0.7281035100000000  0.5599294700000000
  0.3337685600000000  0.2196155500000000  0.5621165000000000
  0.3232265000000000  0.5622959500000000  0.5591963400000000
  0.3350393700000000  0.8851006700000000  0.5598347500000000
  0.4968282200000000  0.0503535800000000  0.5568611200000000
  0.5020454900000000  0.3822405800000000  0.5593831000000000
  0.4960842499999999  0.7233598999999999  0.5600198500000000
  0.6721445600000000  0.2192328600000000  0.5609355000000000
  0.6622317400000000  0.5583945299999999  0.5575042200000000
  0.6682210400000000  0.8837785900000000  0.5603639000000000
  0.8271238800000000  0.0585534300000000  0.5578615800000000
  0.8322530400000000  0.3855671100000000  0.5612227300000000
  0.8263082899999999  0.7195017000000000  0.5599230700000000
  0.0009399600000000  0.5579282500000000  0.6840933900000000
  0.9845262800000000  0.8921492200000000  0.6883168600000000
  0.1597919900000000  0.0517162800000000  0.6857931000000000
  0.1685968800000000  0.3892988900000000  0.6886970500000001
  0.1610236000000000  0.7256930700000001  0.6868216700000001
  0.3347752100000000  0.5540471600000000  0.6818995000000000
  0.3254857100000000  0.8940400700000000  0.6838218000000000
  0.4953705799999999  0.0538034800000000  0.6836040799999999
  0.4942556399999999  0.3911415700000000  0.6832113100000001
  0.6636474900000000  0.5538146100000000  0.6823981099999998
  0.6637438600000000  0.8843716800000000  0.6879041700000000
  0.8194624400000000  0.0518977000000000  0.6865928900000000
  0.8300699100000000  0.3945739300000000  0.6877997500000000
  0.8229539800000000  0.7225036900000000  0.6877548099999999
  0.0105618900000000  0.2196275900000000  0.6882248700000000
  0.3416162200000000  0.2207027100000000  0.6840357900000000
  0.4931119000000000  0.7218376600000000  0.6876070700000000
  0.6648040200000001  0.2177102000000000  0.6852918300000000
  0.4915910300000000  0.4992842200000001  0.6199265200000000
  0.1733193200000000  0.1639107500000000  0.6261105500000000
  0.9812277200000000  0.0007388600000000  0.6229761300000000
  0.8351574700000000  0.8309742900000000  0.6260343800000000
  0.6641012800000000  0.6668794800000000  0.6215302400000000
  0.3297310100000000  0.3332272200000000  0.6236182100000000
  0.8388598300000000  0.1649959200000000  0.6246756400000000
  0.1635423100000000  0.5017768500000001  0.6218116100000000
  0.8383714699999999  0.5033438300000000  0.6209837499999999
  0.9928724900000001  0.3371414000000000  0.6272398400000000
  0.6616970599999999  0.3315142000000000  0.6237025000000000
  0.5012999299999999  0.1617825700000000  0.6212681600000000
  0.1640373600000000  0.8357424500000000  0.6250139600000000
  0.6569474900000000  0.9960334199999998  0.6214463600000000
  0.3248252900000000  0.6717978999999999  0.6228958800000000
  0.9915761199999998  0.6705742900000000  0.6231954500000000
  0.4985375000000000  0.8326382000000000  0.6239181800000000
  0.3283721600000000  0.9998342899999999  0.6193089000000001
