Mo  S  W 
 1.0000000000000000
     9.5549999999999997    0.0000000000000000    0.0000000000000000
     0.0000000000000000   16.5497450000000015    0.0000000000000000
     0.0000000000000000    0.0000000000000000   25.0000000000000000
  Mo   S   W
  18  72  18
Direct
  0.1590275100000000  0.0599002600000000  0.3774405400000000
  0.6694240200000000  0.5555347000000000  0.3761094800000000
  0.8228404600000000  0.3904613900000000  0.3746080800000000
  0.9986062999999999  0.2193950400000000  0.3775388700000001
  0.8177654900000000  0.0555431800000000  0.3762582600000000
  0.4954676200000000  0.3906434100000000  0.3769261500000000
  0.9975501100000000  0.8877138300000000  0.3741509400000000
  0.6587648300000000  0.8931885600000000  0.3759740000000000
  0.8281190100000000  0.7266904500000000  0.3705212600000000
  0.3315910800000000  0.5559099500000000  0.3744253200000000
  0.3310504900000000  0.8892633599999999  0.3775358500000000
  0.1572515400000000  0.3895777400000000  0.3729109700000000
  0.9911132600000000  0.5561516399999999  0.3709426000000000
  0.1665862600000000  0.7229841200000000  0.3737078300000000
  0.6577866200000000  0.2234946000000000  0.3742957000000000
  0.4985037500000000  0.0527235400000000  0.3767151700000000
  0.3263920900000000  0.2204722100000000  0.3811107900000000
  0.4951449700000000  0.7185187800000000  0.3732338100000000
  0.9861457299999999  0.3355345500000000  0.3136183100000000
  0.9921806099999999  0.6683882500000000  0.3093463200000000
  0.9915778100000000  0.9996737099999999  0.3147062200000000
  0.1618112400000000  0.1667716900000000  0.3138816200000000
  0.1620188700000000  0.4982227800000000  0.3118644900000000
  0.1721585300000000  0.8382640200000000  0.3126240000000000
  0.3424884600000000  0.3294263800000000  0.3116446400000000
  0.3302857400000000  0.6641332800000000  0.3113184500000000
  0.3216994300000000  0.0050893100000000  0.3164298100000000
  0.4828788900000000  0.1641587800000000  0.3171562500000000
  0.4999145000000000  0.4984481000000000  0.3153597500000000
  0.4919136499999999  0.8368885800000000  0.3151145600000000
  0.6570505300000000  0.3409641500000000  0.3098952300000000
  0.6614459499999999  0.6710323600000000  0.3106521000000000
  0.6642293700000000  0.0026327700000000  0.3089091500000000
  0.8302786800000000  0.1666579700000000  0.3150358200000000
  0.8242963900000000  0.5024391600000000  0.3085483500000000
  0.8253163200000000  0.8423110500000000  0.3103743200000000
  0.9911744100000000  0.6715331500000000  0.4379542600000000
  0.1594767800000000  0.1680182700000000  0.4427595600000000
  0.3311605800000000  0.3357282100000000  0.4379300400000000
  0.3239546200000000  0.6664049100000000  0.4361656500000000
  0.5126337900000000  0.1627407300000000  0.4436455300000000
  0.6643758500000000  0.3340693900000000  0.4397686000000000
  0.6643930500000000  0.6740100800000000  0.4363517200000000
  0.8256349400000000  0.1702733700000000  0.4371560100000000
  0.8237341800000000  0.8304011200000000  0.4368917200000000
  0.9908146900000000  0.3350642900000000  0.4412287900000000
  0.9967083899999999  0.9965560600000000  0.4350094500000000
  0.1565587500000000  0.5071184600000000  0.4367976700000000
  0.1637321300000000  0.8293876300000000  0.4362454800000000
  0.3224500100000000  0.0015460300000000  0.4379946600000000
  0.5005883800000001  0.5025539200000000  0.4397493000000000
  0.4956146400000000  0.8300542800000000  0.4361486700000000
  0.6625731700000000  0.9983854399999998  0.4421512800000000
  0.8361687500000000  0.5022153800000000  0.4345217400000000
  0.9955096100000000  0.2232037000000000  0.5624277900000000
  0.9949577200000000  0.5529051900000000  0.5612508500000000
  0.0101722400000000  0.8932676700000000  0.5640346899999999
  0.1702764400000000  0.0576883000000000  0.5640590100000000
  0.1607208900000000  0.3887379100000000  0.5629897500000000
  0.1723188300000000  0.7171285300000000  0.5640180900000000
  0.3238795000000000  0.2260211700000000  0.5613797100000000
  0.3253327600000000  0.5553130900000000  0.5634747600000000
  0.3350469100000000  0.8851762900000000  0.5594010300000000
  0.5074782200000000  0.0557526000000000  0.5613955400000000
  0.5124144300000000  0.3919188500000000  0.5597617100000000
  0.5130470900000000  0.7155090000000000  0.5635223900000000
  0.6714747599999999  0.2258567900000000  0.5604158299999999
  0.6655220500000000  0.5551957100000000  0.5639035500000000
  0.6719088300000000  0.8907114699999999  0.5597883400000000
  0.8375225600000000  0.0583254500000000  0.5630515000000000
  0.8422477499999999  0.3899857700000000  0.5615910000000000
  0.8455840800000000  0.7182888700000000  0.5639926300000000
  0.0015560000000000  0.5531650400000000  0.6893693300000000
  0.0016671800000000  0.8880327200000000  0.6868167900000001
  0.1750587900000000  0.0603480300000000  0.6881424500000000
  0.1774777600000000  0.3835933300000000  0.6898355300000000
  0.1786979400000000  0.7194628700000000  0.6842289499999999
  0.3266993100000000  0.5488936700000000  0.6884234700000000
  0.3297287700000000  0.8882992800000000  0.6824216200000000
  0.5009623600000001  0.0622961700000000  0.6838599900000000
  0.5107519000000000  0.3884823200000000  0.6825107500000001
  0.6633675700000000  0.5470831400000000  0.6865867399999999
  0.6579078300000000  0.8910081300000000  0.6819003500000000
  0.8368515300000000  0.0584205100000000  0.6872860299999999
  0.8342895299999999  0.3899040200000000  0.6881605600000000
  0.8415778900000001  0.7257891600000000  0.6876187600000000
  0.0013329600000000  0.2221607100000000  0.6889585600000000
  0.3404882400000000  0.2254926100000000  0.6856203300000000
  0.5153186400000000  0.7213130000000000  0.6873682500000000
  0.6642104800000000  0.2219543700000000  0.6859361600000000
  0.4938530300000000  0.5004903500000000  0.6248056700000000
  0.1648585000000000  0.1695890500000000  0.6251458700000000
  0.0046474000000000  0.0037255200000000  0.6281528600000000
  0.8360276400000000  0.8358776400000000  0.6236117799999999
  0.6779064700000000  0.6617804400000000  0.6274003600000000
  0.3450996400000000  0.3324777700000000  0.6227619599999999
  0.8352172800000000  0.1739181800000000  0.6265758500000000
  0.1626639400000000  0.4972202200000000  0.6267995400000000
  0.8307382400000000  0.4988383400000000  0.6266690600000000
  0.0059321400000000  0.3330838300000000  0.6265352300000000
  0.6777622599999999  0.3343302000000000  0.6217391700000000
  0.4996510200000001  0.1720017700000000  0.6207613700000000
  0.1685998800000000  0.8274820000000001  0.6238077400000001
  0.6723493200000000  0.0006813900000000  0.6232618200000000
  0.3454392100000000  0.6636262900000000  0.6249655800000000
  0.0079031900000000  0.6654266800000000  0.6262561400000000
  0.4966523700000000  0.8335541900000000  0.6223528600000000
  0.3370454900000000  0.0039389100000000  0.6245845100000000
