Mo  S  W 
 1.0000000000000000
     9.5549999999999997    0.0000000000000000    0.0000000000000000
     0.0000000000000000   16.5497450000000015    0.0000000000000000
     0.0000000000000000    0.0000000000000000   25.0000000000000000
  Mo   S   W
  18  72  18
Direct
  0.1635301300000000  0.0496538400000000  0.3728029400000000
  0.6688413700000000  0.5531207400000000  0.3803144900000000
  0.8260017400000000  0.3760234900000000  0.3762328000000000
  0.9958458100000001  0.2197857300000000  0.3746355100000000
  0.8221000800000000  0.0531228200000000  0.3742523600000000
  0.4920197900000001  0.3835648600000000  0.3763024200000000
  0.9987927699999999  0.8857188000000000  0.3798061400000000
  0.6693632800000000  0.8858610600000000  0.3747568300000000
  0.8234543600000001  0.7215203200000000  0.3785937800000000
  0.3298151100000000  0.5578954600000000  0.3797247200000000
  0.3292532500000000  0.8858126300000000  0.3770515800000000
  0.1620782900000000  0.3911126000000000  0.3769957900000000
  0.0015722300000000  0.5525086299999999  0.3783800600000000
  0.1715034700000000  0.7231965000000000  0.3804741500000000
  0.6553990700000000  0.2199413000000000  0.3734056800000001
  0.4994484600000000  0.0542517600000000  0.3738927700000000
  0.3313621100000000  0.2174522900000000  0.3759843600000000
  0.5078547600000000  0.7183599100000000  0.3783631800000001
  0.0030911000000000  0.3347928400000000  0.3131465200000000
  0.9971993100000001  0.6698168300000000  0.3190743900000000
  0.9928037700000000  0.9956841599999999  0.3152246300000000
  0.1554468700000000  0.1676767800000000  0.3086552800000000
  0.1664991900000000  0.5088455800000000  0.3148428100000000
  0.1661797000000000  0.8283870500000000  0.3176738500000000
  0.3286856000000000  0.3297494600000000  0.3178485100000000
  0.3280869100000000  0.6697778500000000  0.3168671000000000
  0.3304957200000000  0.9946107700000000  0.3141526600000000
  0.5040418400000000  0.1597313300000000  0.3101364500000000
  0.4938888800000000  0.5018110200000000  0.3157415300000000
  0.4919793700000000  0.8322768500000000  0.3147449800000000
  0.6618342100000000  0.3331684200000000  0.3134845800000000
  0.6627189900000000  0.6653324400000000  0.3146225700000000
  0.6629094700000000  0.9947292999999999  0.3138477100000000
  0.8274980400000000  0.1694396200000000  0.3093252000000000
  0.8298051400000001  0.4946534700000000  0.3188659300000000
  0.8393581400000000  0.8276137400000000  0.3158552600000000
  0.9978973900000000  0.6705020200000000  0.4380728800000000
  0.1566181300000000  0.1544715700000000  0.4362405600000001
  0.3335034000000000  0.3300651000000000  0.4429006899999999
  0.3402374300000000  0.6654952900000000  0.4436093800000000
  0.4910568200000000  0.1635442600000000  0.4357832000000000
  0.6568115700000000  0.3338648100000000  0.4380567600000000
  0.6736296500000000  0.6614587400000000  0.4444551500000000
  0.8308231300000000  0.1604933800000000  0.4375046700000000
  0.8304749600000000  0.8383283700000000  0.4397417400000000
  0.9971970600000001  0.3316182600000000  0.4359561900000000
  0.0008838900000000  0.9955156699999999  0.4355398400000000
  0.1650820600000000  0.5011010700000000  0.4390014600000000
  0.1748995200000000  0.8325447100000000  0.4452798900000000
  0.3197478400000000  0.0022496700000000  0.4366765000000000
  0.5075301700000000  0.4968112500000000  0.4398108100000001
  0.5046578900000001  0.8393331900000000  0.4399512999999999
  0.6684464000000000  0.9959711499999999  0.4372768300000000
  0.8335925600000000  0.4925382100000000  0.4419328200000001
  0.0134929500000000  0.2251587800000000  0.5618889600000000
  0.0064858400000000  0.5519408600000000  0.5652055000000000
  0.0089522000000000  0.8920375699999999  0.5609774600000000
  0.1562057000000000  0.0551185100000000  0.5632524800000001
  0.1574944400000000  0.3889949000000000  0.5605309800000000
  0.1694912700000000  0.7176665600000000  0.5602943500000001
  0.3308189800000000  0.2263367700000000  0.5579197299999999
  0.3384635700000000  0.5504649600000000  0.5582548300000000
  0.3354158500000000  0.8965138499999999  0.5574364500000000
  0.4982357200000000  0.0633770200000000  0.5640062500000000
  0.5037651000000000  0.3940619000000000  0.5574351800000000
  0.4953101699999999  0.7181288600000000  0.5562687100000000
  0.6751094600000001  0.2228266000000000  0.5612556800000000
  0.6807124100000000  0.5566947000000000  0.5617808800000000
  0.6743890200000000  0.8996210600000000  0.5622469500000000
  0.8354990100000000  0.0608882600000000  0.5640015500000000
  0.8260986100000000  0.3929098000000000  0.5610215400000000
  0.8344749600000000  0.7241491500000000  0.5619091700000000
  0.0064280000000000  0.5512860000000001  0.6890638199999999
  0.0167742600000000  0.8884169100000000  0.6877917800000000
  0.1648032200000000  0.0533960700000000  0.6911045699999999
  0.1610898700000000  0.3909632900000000  0.6834781000000000
  0.1650007700000000  0.7194146200000000  0.6862110700000001
  0.3388756700000000  0.5534742300000000  0.6865458100000000
  0.3503210200000000  0.8907933400000000  0.6864033500000000
  0.4968668900000000  0.0624183200000000  0.6848604500000000
  0.4943333200000000  0.3921604000000000  0.6866060000000000
  0.6662058600000000  0.5585029700000000  0.6860359499999999
  0.6743749300000000  0.8868633800000000  0.6862895500000000
  0.8292472800000000  0.0672676200000000  0.6905370000000000
  0.8185082500000000  0.3863544800000000  0.6873577600000000
  0.8266926200000000  0.7236974100000000  0.6867447200000000
  0.0083836600000000  0.2261167100000000  0.6876338000000000
  0.3314141700000000  0.2302069800000000  0.6872920300000002
  0.4925396899999999  0.7247454600000000  0.6822989699999999
  0.6666891500000000  0.2288098000000000  0.6873005599999999
  0.5080070500000000  0.5007785800000000  0.6237115400000000
  0.1740807400000000  0.1680883800000000  0.6263621300000000
  0.9965518700000000  0.0048950000000000  0.6277565800000000
  0.8407467199999999  0.8379051500000000  0.6228004400000000
  0.6603614700000000  0.6702679499999999  0.6203792200000000
  0.3334218800000000  0.3402106300000000  0.6197158200000000
  0.8460186900000000  0.1712338800000000  0.6253648900000000
  0.1704866500000000  0.4957974800000000  0.6248015099999999
  0.8401603399999999  0.4998754500000000  0.6282944200000000
  0.9922690000000000  0.3369767500000000  0.6228026600000000
  0.6625694200000000  0.3361432000000000  0.6226507200000000
  0.4945686599999999  0.1776775600000000  0.6236216700000000
  0.1767155800000000  0.8320388100000000  0.6222884000000000
  0.6682934200000000  0.0082467400000000  0.6254726000000000
  0.3330183800000000  0.6639191400000000  0.6196456400000000
  0.9984314200000000  0.6622756200000000  0.6251841299999999
  0.5055524100000000  0.8328662400000000  0.6191481000000000
  0.3301929300000000  0.0046561900000000  0.6247060200000000
