Mo  S  W 
 1.0000000000000000
     9.5549999999999997    0.0000000000000000    0.0000000000000000
     0.0000000000000000   16.5497450000000015    0.0000000000000000
     0.0000000000000000    0.0000000000000000   25.0000000000000000
  Mo   S   W
  18  72  18
Direct
  0.1640581400000000  0.0465125100000000  0.3751066300000000
  0.6701465100000000  0.5565498300000000  0.3800070500000000
  0.8286965100000000  0.3821460900000000  0.3759261300000000
  0.9959560800000001  0.2165590400000000  0.3744213399999999
  0.8244187700000000  0.0540964700000000  0.3729667100000000
  0.4886638600000001  0.3830609600000000  0.3795805700000001
  0.9996132500000000  0.8862584400000000  0.3799925400000000
  0.6648236300000000  0.8893419100000000  0.3735660700000000
  0.8294266600000000  0.7231920700000000  0.3789342099999999
  0.3327319100000000  0.5618600200000000  0.3799787400000000
  0.3321474600000000  0.8860253400000000  0.3776887600000000
  0.1634224900000000  0.3912353200000000  0.3773642100000000
  0.9957482500000001  0.5520668700000000  0.3780150400000000
  0.1734862800000000  0.7240959000000000  0.3803226000000000
  0.6527625600000000  0.2185609900000000  0.3749708900000000
  0.4982263600000000  0.0522869400000000  0.3746556200000001
  0.3281199800000000  0.2174335000000000  0.3758323300000000
  0.5044014300000000  0.7221031900000000  0.3810031500000000
  0.0051651600000000  0.3302952700000000  0.3136035200000000
  0.0007574700000000  0.6705669300000000  0.3159661400000000
  0.9886695400000000  0.9922385800000000  0.3128714400000000
  0.1615207000000000  0.1601652700000000  0.3113984100000000
  0.1639977200000000  0.5016453000000000  0.3159226300000000
  0.1590285200000000  0.8313431800000000  0.3135213800000000
  0.3242000900000000  0.3308915500000000  0.3151638700000000
  0.3362038500000000  0.6684827300000000  0.3175496400000000
  0.3418913100000000  0.9937689699999999  0.3152245000000000
  0.4922183000000000  0.1640025500000000  0.3116986700000000
  0.5006509300000000  0.5000875600000000  0.3191764500000000
  0.4947722400000000  0.8280074400000000  0.3182914100000000
  0.6582801000000000  0.3235711600000000  0.3116657200000000
  0.6697852200000000  0.6633005800000000  0.3142759400000000
  0.6590148500000000  0.9973398100000000  0.3106087100000000
  0.8172244400000001  0.1664273800000000  0.3098731500000000
  0.8266518700000000  0.4958757800000000  0.3150607200000000
  0.8371685900000000  0.8304627000000000  0.3127843500000000
  0.9999328000000000  0.6690852900000001  0.4408229000000000
  0.1631867500000000  0.1596222600000000  0.4357523300000000
  0.3227855200000000  0.3330691400000000  0.4405328000000000
  0.3300922200000000  0.6699256600000000  0.4425490300000000
  0.4902446000000000  0.1628136000000000  0.4388572300000000
  0.6560601600000000  0.3224535900000000  0.4390460400000001
  0.6716286900000000  0.6581201700000000  0.4445481800000000
  0.8384242900000000  0.1589242500000000  0.4372763500000000
  0.8234663700000000  0.8376822100000000  0.4411992100000000
  0.9997239899999999  0.3273728600000000  0.4372375000000000
  0.9905137200000000  0.0003952700000000  0.4378883900000000
  0.1638287600000000  0.5051069300000000  0.4404635299999999
  0.1623965800000000  0.8344794600000000  0.4428853900000000
  0.3384466300000000  0.9977659500000001  0.4369739900000000
  0.5004466000000000  0.5001782200000000  0.4431369800000000
  0.5000455700000001  0.8367442700000000  0.4421268200000000
  0.6715697700000000  0.9966755300000000  0.4378719500000001
  0.8343669900000000  0.4926918700000000  0.4382997700000000
  0.0091838200000000  0.2232599200000000  0.5661674900000000
  0.0013781500000000  0.5509372500000000  0.5638440900000000
  0.0039571100000000  0.8949707700000000  0.5580405200000000
  0.1584546700000000  0.0550915600000000  0.5625980500000000
  0.1670231100000000  0.3881078600000000  0.5591162500000000
  0.1668411000000000  0.7162323800000000  0.5626009800000000
  0.3322547100000000  0.2263903000000000  0.5602956200000000
  0.3332538100000000  0.5533009600000000  0.5605003100000000
  0.3423210900000000  0.8974281000000000  0.5594101400000000
  0.4938691000000000  0.0628543600000000  0.5638975400000000
  0.4984483600000000  0.3943365700000000  0.5584522200000001
  0.4976003800000000  0.7204901900000000  0.5584884700000000
  0.6738269300000000  0.2252172500000000  0.5608904100000000
  0.6746690500000000  0.5592541200000000  0.5643941099999999
  0.6787177900000000  0.8933590000000000  0.5612021300000000
  0.8376144900000000  0.0593460000000000  0.5638112400000000
  0.8335336500000000  0.3926398900000000  0.5612810900000000
  0.8311403900000000  0.7245883100000000  0.5603688100000001
  0.0051905400000000  0.5521362900000000  0.6886720099999999
  0.0090651500000000  0.8871314500000000  0.6856966900000000
  0.1663310200000000  0.0557339800000000  0.6896061800000000
  0.1688611800000000  0.3877875300000000  0.6857113499999999
  0.1724636700000000  0.7216296000000000  0.6843477200000000
  0.3394379200000000  0.5526766000000000  0.6839866300000000
  0.3382806200000000  0.8891013400000000  0.6858175800000000
  0.5002927200000000  0.0633075000000000  0.6840233900000000
  0.4961909200000000  0.3877055000000000  0.6868010900000000
  0.6626278000000000  0.5584644400000000  0.6850559000000002
  0.6666895600000000  0.8907410300000000  0.6845094800000000
  0.8311837600000000  0.0629707200000000  0.6906173000000000
  0.8293570300000001  0.3868864400000000  0.6895699900000000
  0.8310911800000000  0.7229489400000000  0.6851077499999999
  0.0117111000000000  0.2277426900000000  0.6890678000000000
  0.3381522100000000  0.2272069500000000  0.6835183099999999
  0.4950227700000001  0.7227935200000000  0.6838005400000000
  0.6669029200000000  0.2278885300000000  0.6866844400000000
  0.5055303100000000  0.5003144000000000  0.6232098800000000
  0.1761226200000000  0.1685208000000000  0.6258727800000000
  0.9975190400000001  0.0047712100000000  0.6279761699999999
  0.8380536400000000  0.8370143100000000  0.6234142200000000
  0.6648189600000000  0.6708380200000000  0.6217068700000000
  0.3336757000000000  0.3390732800000000  0.6193717100000000
  0.8398950400000000  0.1706664100000000  0.6268280300000000
  0.1690255300000000  0.4962929300000001  0.6226059200000000
  0.8345313000000000  0.4996037700000000  0.6279442700000000
  0.9974363500000000  0.3373951200000000  0.6233672700000000
  0.6637456300000000  0.3367704300000000  0.6219703600000001
  0.4970365100000000  0.1758197200000000  0.6226266499999999
  0.1758048900000000  0.8336514000000000  0.6209479500000000
  0.6653860000000000  0.0087325600000000  0.6258035800000000
  0.3326799200000000  0.6632488500000000  0.6203754500000001
  0.0032344900000000  0.6628719600000000  0.6238919100000000
  0.5076875199999999  0.8334897600000000  0.6193295500000000
  0.3329995000000000  0.0044662800000000  0.6232853300000000
