Mo  S  W 
 1.0000000000000000
     9.5549999999999997    0.0000000000000000    0.0000000000000000
     0.0000000000000000   16.5497450000000015    0.0000000000000000
     0.0000000000000000    0.0000000000000000   25.0000000000000000
  Mo   S   W
  18  72  18
Direct
  0.1639026700000000  0.0487937900000000  0.3733333800000000
  0.6692243800000000  0.5538784800000000  0.3804236900000000
  0.8264076000000000  0.3766160800000000  0.3761767600000001
  0.9957763400000001  0.2193066200000000  0.3747007200000000
  0.8218105000000000  0.0533143000000000  0.3740478100000000
  0.4908719100000000  0.3830844800000000  0.3768857700000000
  0.9988906999999999  0.8860565500000001  0.3800574200000000
  0.6687700000000000  0.8864970400000000  0.3743960600000000
  0.8241315700000000  0.7218604300000000  0.3786098300000000
  0.3301135000000000  0.5588652900000000  0.3798378700000000
  0.3297494300000000  0.8858050900000000  0.3769805400000000
  0.1619732300000000  0.3912960400000000  0.3770425400000000
  0.0008800300000000  0.5521229000000000  0.3783520500000000
  0.1722873100000000  0.7233870700000000  0.3804431300000000
  0.6542304799999999  0.2198535700000000  0.3735260400000000
  0.4992825200000000  0.0540422200000000  0.3738253600000000
  0.3313674700000000  0.2174978100000000  0.3760383400000001
  0.5076815700000000  0.7189856999999999  0.3787155999999999
  0.0040644500000000  0.3341226500000000  0.3131764400000000
  0.9976775300000000  0.6704232800000000  0.3183913600000000
  0.9918536300000000  0.9951380600000000  0.3149596400000000
  0.1558127300000000  0.1666934700000000  0.3086129800000000
  0.1657583800000000  0.5079033900000000  0.3150084900000000
  0.1648208500000000  0.8286344100000000  0.3168739000000000
  0.3282520800000000  0.3297506200000000  0.3177497400000000
  0.3286002200000000  0.6696279500000000  0.3169577100000000
  0.3329677400000000  0.9944079700000000  0.3148662900000000
  0.5031145200000000  0.1601025700000000  0.3103883800000000
  0.4949959100000000  0.5016401900000000  0.3160630200000000
  0.4915566500000000  0.8318178000000001  0.3156033300000000
  0.6620831600000000  0.3312433800000000  0.3131781300000000
  0.6637347400000000  0.6650411700000000  0.3142042900000000
  0.6621276900000000  0.9950119300000001  0.3137490300000000
  0.8254289100000000  0.1691773900000000  0.3089045600000000
  0.8289523600000001  0.4948331100000000  0.3182293000000000
  0.8393504800000000  0.8277845600000000  0.3152656400000000
  0.9985007600000000  0.6707746800000000  0.4384250000000000
  0.1574670200000000  0.1546650000000000  0.4361792700000000
  0.3323490000000000  0.3308277100000000  0.4428990900000000
  0.3380234900000000  0.6660444400000000  0.4435437400000000
  0.4900382500000000  0.1634859100000000  0.4361164900000000
  0.6564609000000000  0.3322594700000000  0.4381871900000000
  0.6737227700000000  0.6600962300000000  0.4447768400000001
  0.8332998200000000  0.1595102200000000  0.4376471800000000
  0.8293684800000000  0.8388860000000000  0.4400018000000000
  0.9976348600000000  0.3311984600000000  0.4358352900000000
  0.9995975700000000  0.9956837700000001  0.4356308999999999
  0.1647410400000000  0.5020659800000000  0.4389049700000001
  0.1728789500000000  0.8328192900000000  0.4452591300000000
  0.3220978200000000  0.0017106100000000  0.4365461800000000
  0.5073241100000000  0.4975127200000001  0.4406115600000000
  0.5036915700000000  0.8394368300000000  0.4406931100000000
  0.6700221300000000  0.9957138199999999  0.4374277000000000
  0.8336470000000000  0.4926688400000001  0.4414701300000000
  0.0134563900000000  0.2250038500000000  0.5628137200000000
  0.0063695000000000  0.5516888300000000  0.5654196600000000
  0.0081639800000000  0.8926805000000000  0.5598439700000000
  0.1557108700000000  0.0547098300000000  0.5629709899999999
  0.1594482900000000  0.3886269000000000  0.5606278099999999
  0.1704259300000000  0.7168635700000000  0.5610522600000000
  0.3311688700000000  0.2264738600000000  0.5581910500000000
  0.3374649000000000  0.5511017800000000  0.5584494400000000
  0.3365058700000000  0.8973229600000000  0.5573496900000000
  0.4970786300000000  0.0634067200000000  0.5643756900000000
  0.5025231700000000  0.3943508900000000  0.5574182300000000
  0.4954190700000000  0.7180628000000000  0.5566763100000000
  0.6751336600000000  0.2232113900000000  0.5609966100000000
  0.6799435700000001  0.5575547500000000  0.5623742500000000
  0.6754997700000001  0.8987221600000000  0.5621107000000000
  0.8360146400000000  0.0605548700000000  0.5639651100000000
  0.8272421700000000  0.3928871400000000  0.5609890000000000
  0.8331094700000000  0.7242314200000000  0.5615827000000000
  0.0058916800000000  0.5511295000000000  0.6889634799999999
  0.0162076900000000  0.8882521300000000  0.6878070099999999
  0.1644680100000000  0.0534017600000000  0.6911251300000000
  0.1620732700000000  0.3910822600000000  0.6835148100000000
  0.1659318600000000  0.7198497500000000  0.6861661900000000
  0.3392305600000000  0.5530860500000000  0.6862765600000000
  0.3485535500000000  0.8907297500000000  0.6869714700000000
  0.4979808100000000  0.0623875200000000  0.6842762900000000
  0.4941774100000000  0.3913171500000000  0.6870258000000000
  0.6650643000000001  0.5581481800000000  0.6856418900000000
  0.6734543500000000  0.8871794200000001  0.6862845300000001
  0.8293843800000000  0.0672439700000000  0.6907087800000000
  0.8196052400000000  0.3862362400000000  0.6878778900000000
  0.8270112400000000  0.7235845900000000  0.6868561400000001
  0.0091919100000000  0.2263557400000000  0.6880311300000002
  0.3324178100000000  0.2292527400000000  0.6864657400000000
  0.4926265300000000  0.7245748500000000  0.6826742300000000
  0.6666617200000000  0.2289513100000000  0.6875012700000001
  0.5077789900000000  0.5007097200000000  0.6236806700000000
  0.1746339500000000  0.1681948200000000  0.6263205700000000
  0.9966773500000000  0.0049811300000000  0.6278176200000000
  0.8401654200000001  0.8377914600000000  0.6228689900000000
  0.6610297700000000  0.6704051300000000  0.6204948200000000
  0.3334716700000000  0.3401512200000000  0.6195362400000000
  0.8451797800000000  0.1710526500000000  0.6256322800000000
  0.1701530100000000  0.4956638900000000  0.6244315100000000
  0.8393216400000001  0.4998420299999999  0.6283270399999999
  0.9930760899999999  0.3370996700000000  0.6228184900000000
  0.6627985300000000  0.3362397000000000  0.6225094300000000
  0.4946946400000000  0.1774561300000000  0.6234510300000000
  0.1765904100000000  0.8322260299999999  0.6220305500000000
  0.6676558200000000  0.0084375600000000  0.6255290999999999
  0.3328529200000000  0.6638034400000000  0.6196087000000000
  0.9993248100000000  0.6622320900000001  0.6249216100000000
  0.5060854800000000  0.8328418500000000  0.6191144300000000
  0.3307577800000000  0.0046872400000000  0.6244223100000000
