Mo  S  W 
 1.0000000000000000
     9.5549999999999997    0.0000000000000000    0.0000000000000000
     0.0000000000000000   16.5497450000000015    0.0000000000000000
     0.0000000000000000    0.0000000000000000   25.0000000000000000
  Mo   S   W
  18  72  18
Direct
  0.1650586300000000  0.0497548300000000  0.3708849700000000
  0.6660791800000000  0.5611885500000000  0.3792472700000000
  0.8301309900000000  0.3891313300000000  0.3733166000000000
  0.9993693800000000  0.2236880300000000  0.3738140700000001
  0.8351837400000000  0.0567121500000000  0.3713410400000000
  0.4938037900000000  0.3894341900000000  0.3720059400000000
  0.9989983200000000  0.8923317700000000  0.3797534200000000
  0.6619099200000000  0.8883804800000000  0.3712261600000000
  0.8232266300000000  0.7307009200000000  0.3775189400000000
  0.3309878600000000  0.5595783300000000  0.3726947400000000
  0.3299131900000000  0.8913726199999999  0.3711003900000000
  0.1620010200000000  0.3912159600000000  0.3716923900000000
  0.9944785200000001  0.5590871600000000  0.3747917400000000
  0.1659189500000000  0.7255187200000000  0.3755671100000000
  0.6664284100000000  0.2211313900000000  0.3666545700000000
  0.4958343800000001  0.0574313700000000  0.3668681300000000
  0.3367192800000000  0.2230895900000000  0.3695702900000001
  0.4926767700000000  0.7259048900000000  0.3744333800000000
  0.9993519900000000  0.3279577800000000  0.3088629300000000
  0.0009108400000000  0.6754119300000000  0.3113978900000000
  0.9886096800000000  0.0000578100000000  0.3095522600000000
  0.1608964700000000  0.1678385400000000  0.3087192800000000
  0.1642867900000000  0.5063898200000000  0.3095066100000000
  0.1606804500000000  0.8302646000000000  0.3132542900000000
  0.3201308500000000  0.3364224300000000  0.3088798600000000
  0.3225767900000000  0.6719766800000000  0.3116733200000000
  0.3339819900000000  0.9972334899999999  0.3062662700000000
  0.5010638200000000  0.1721219100000000  0.3032941500000000
  0.5062499000000000  0.5103141300000000  0.3114789000000000
  0.5056227400000000  0.8338257600000000  0.3104273600000000
  0.6673739200000000  0.3375859500000000  0.3088786300000000
  0.6651937999999999  0.6744754300000000  0.3143867200000000
  0.6621259800000000  0.0043975800000000  0.3100878700000000
  0.8356007200000000  0.1690188100000000  0.3034009700000000
  0.8265906400000000  0.5086852500000000  0.3147350000000000
  0.8355967100000000  0.8390367100000000  0.3111396300000000
  0.9819140800000000  0.6700126600000000  0.4389713400000000
  0.1827853300000000  0.1642653600000000  0.4298106500000000
  0.3263233600000000  0.3334562600000000  0.4361321800000000
  0.3279781900000000  0.6679639900000000  0.4360825000000000
  0.5060182100000000  0.1696823500000000  0.4289033200000000
  0.6636859700000000  0.3314048100000000  0.4343602800000000
  0.6633131400000000  0.6684263499999999  0.4413223499999999
  0.8315009300000000  0.1713929100000000  0.4333626799999999
  0.8344039599999999  0.8452736300000000  0.4414845200000000
  0.0090372200000000  0.3342353700000000  0.4353469400000000
  0.9959600700000000  0.0098755400000000  0.4380310600000000
  0.1700162000000000  0.5034641000000000  0.4341970800000000
  0.1621478000000000  0.8397120500000000  0.4398140699999999
  0.3368184900000000  0.0018489200000000  0.4309634700000000
  0.4933276600000000  0.4996345000000000  0.4350410900000000
  0.4922305200000000  0.8372513200000000  0.4339012000000000
  0.6654396400000000  0.0034046300000000  0.4326482000000000
  0.8294288800000000  0.4963282500000000  0.4410425499999999
  0.0082348300000000  0.2211479500000000  0.5597509899999999
  0.9993151700000001  0.5534983200000000  0.5651105199999999
  0.0045869200000000  0.8873568500000000  0.5603028000000000
  0.1742675500000000  0.0483168100000000  0.5641805400000000
  0.1795240300000000  0.3897147400000000  0.5624059700000000
  0.1715894600000000  0.7141434300000000  0.5636793800000000
  0.3351318000000000  0.2199383500000000  0.5644859500000000
  0.3342501300000000  0.5521942000000000  0.5649278100000000
  0.3273660000000000  0.8914370400000000  0.5649410200000000
  0.4986303400000000  0.0556502800000000  0.5709998100000000
  0.4924072400000000  0.3916614600000000  0.5663355200000000
  0.5032801300000000  0.7220597600000001  0.5620780100000000
  0.6590477600000000  0.2194625400000000  0.5645997300000000
  0.6645992800000000  0.5510153700000000  0.5660132500000000
  0.6608155200000000  0.8903442499999999  0.5626057100000000
  0.8401628600000001  0.0573960100000000  0.5644110300000000
  0.8295041500000000  0.3900218300000000  0.5606595300000000
  0.8333973400000000  0.7225115000000000  0.5614630300000000
  0.9984378500000000  0.5548743800000000  0.6895312900000000
  0.0039792100000000  0.8807847600000001  0.6852650199999999
  0.1586871400000000  0.0543901000000000  0.6910945800000000
  0.1631352200000000  0.3832872800000000  0.6858895300000001
  0.1705055400000000  0.7142071600000000  0.6865617800000000
  0.3365764500000000  0.5544839300000000  0.6898962000000001
  0.3347553100000000  0.8856981800000000  0.6905598700000000
  0.5089984500000000  0.0572058100000000  0.6888663700000000
  0.5127527500000000  0.3868564100000000  0.6915478300000000
  0.6749238000000000  0.5610250600000000  0.6896460100000000
  0.6694274099999999  0.8862260000000000  0.6875962200000000
  0.8380786399999999  0.0570380400000000  0.6886694700000000
  0.8450480800000000  0.3832006400000000  0.6880101600000000
  0.8353738800000000  0.7262469800000000  0.6851369500000000
  0.0025897900000000  0.2236564900000000  0.6845987800000001
  0.3216433200000000  0.2212056000000000  0.6884809200000001
  0.4971470800000000  0.7238327600000000  0.6844297000000000
  0.6760285400000000  0.2244468800000000  0.6892758500000000
  0.5017096000000000  0.5023320200000000  0.6287249000000000
  0.1656355000000000  0.1638383000000000  0.6244133400000000
  0.0063114100000000  0.9992581900000000  0.6263959200000000
  0.8328988600000000  0.8367678100000000  0.6215969200000000
  0.6673931400000001  0.6675462500000000  0.6260607200000000
  0.3391744000000000  0.3333365500000000  0.6275301100000000
  0.8385992800000001  0.1670011900000000  0.6227819600000000
  0.1659675800000000  0.4977273800000001  0.6276837199999999
  0.8339133100000000  0.4997132200000000  0.6262803900000000
  0.9966466899999999  0.3311736500000000  0.6220491300000000
  0.6712302700000000  0.3323526200000000  0.6265879500000000
  0.4949006100000000  0.1708091200000000  0.6305970800000000
  0.1709150500000000  0.8247743800000000  0.6260438400000000
  0.6733109700000000  0.0020507900000000  0.6285556700000000
  0.3375179200000000  0.6646802300000000  0.6267920600000000
  0.0013124100000000  0.6645708600000000  0.6257172300000000
  0.4980397300000000  0.8317171500000000  0.6242726500000000
  0.3324395400000000  0.9999684800000002  0.6327990300000000
