Mo  S  W 
 1.0000000000000000
     9.5549999999999997    0.0000000000000000    0.0000000000000000
     0.0000000000000000   16.5497450000000015    0.0000000000000000
     0.0000000000000000    0.0000000000000000   25.0000000000000000
  Mo   S   W
  18  72  18
Direct
  0.1739439100000000  0.0565461700000000  0.3741518000000000
  0.6724069100000000  0.5520536100000000  0.3732100700000000
  0.8409927899999999  0.3906049600000000  0.3746371700000000
  0.0177334300000000  0.2222131000000000  0.3713035400000000
  0.8327115700000000  0.0555718100000000  0.3720195200000000
  0.5119986800000000  0.3863440600000000  0.3789052100000000
  0.0060918100000000  0.8901618900000000  0.3729843700000000
  0.6706710000000000  0.8885985900000000  0.3755972800000000
  0.8349894500000000  0.7156049400000000  0.3749658100000000
  0.3401827700000000  0.5540594800000000  0.3761503800000000
  0.3391784600000000  0.8875100299999999  0.3759539600000000
  0.1798665200000000  0.3911060500000000  0.3740623000000000
  0.9999900100000001  0.5520802100000000  0.3761840300000000
  0.1710606100000000  0.7227950900000000  0.3765696300000000
  0.6754055900000000  0.2220668500000000  0.3779576500000000
  0.5153436900000000  0.0536168000000000  0.3761445600000000
  0.3376536900000000  0.2206146600000000  0.3726368400000000
  0.5024568700000001  0.7188691900000000  0.3776880400000000
  0.0150815500000000  0.3385323800000000  0.3078725000000000
  0.0045074500000000  0.6625957600000000  0.3123654500000000
  0.0024999100000000  0.9982168000000000  0.3079125100000000
  0.1725396200000000  0.1647118500000000  0.3103460600000000
  0.1728063900000000  0.4997206500000000  0.3117748300000000
  0.1809247200000000  0.8355560000000000  0.3117551600000000
  0.3518623600000000  0.3338250400000000  0.3115925900000000
  0.3426997100000000  0.6615136000000000  0.3156044600000000
  0.3419079800000000  0.0022204600000000  0.3128873900000000
  0.5036049300000000  0.1664354000000000  0.3108264400000000
  0.5062300000000000  0.4957537200000001  0.3126339400000000
  0.5020111000000000  0.8299854400000000  0.3127435700000000
  0.6714185200000000  0.3359031100000000  0.3116993300000000
  0.6667759200000000  0.6655095200000000  0.3125804400000000
  0.6713626900000000  0.9983653100000000  0.3085527900000000
  0.8351325400000000  0.1692357700000000  0.3132656100000000
  0.8375193300000000  0.5053052500000000  0.3109519800000000
  0.8459856400000000  0.8323702600000000  0.3126231700000000
  0.0065474100000000  0.6678762000000000  0.4369059400000000
  0.1718292800000000  0.1727445400000000  0.4359336000000000
  0.3382358500000000  0.3292725800000000  0.4384602300000000
  0.3313719500000000  0.6676544400000000  0.4406716400000000
  0.5046071600000001  0.1652421800000000  0.4378963400000000
  0.6812634700000000  0.3249685700000000  0.4439904200000000
  0.6682207300000000  0.6672179499999999  0.4400319700000000
  0.8454289800000000  0.1661549400000000  0.4354964400000000
  0.8359267100000000  0.8299747600000000  0.4392837000000000
  0.0124674300000000  0.3361210100000000  0.4340781700000000
  0.9959138199999998  0.9973500700000000  0.4338538600000000
  0.1648448700000000  0.4990989900000000  0.4390466700000000
  0.1697899100000000  0.8364613500000000  0.4359051299999999
  0.3427981500000000  0.0001582000000000  0.4368608500000001
  0.5074881900000000  0.5059087900000000  0.4380624100000000
  0.5089822400000000  0.8333862100000000  0.4353151200000000
  0.6777822300000000  0.0051860900000000  0.4373484300000000
  0.8316813199999999  0.5027889100000000  0.4386446300000000
  0.0054217100000000  0.2171441100000000  0.5632738400000000
  0.0073856200000000  0.5585563000000000  0.5587456300000000
  0.9978756299999999  0.8944201800000000  0.5585080400000000
  0.1609702000000000  0.0593292100000000  0.5641594300000000
  0.1618750600000000  0.3871713200000000  0.5610410800000000
  0.1715354400000000  0.7225718800000001  0.5612778500000000
  0.3348020100000000  0.2199258000000000  0.5652175200000000
  0.3356178100000000  0.5593574400000000  0.5663254800000000
  0.3357022100000000  0.8880587300000000  0.5642159200000000
  0.4837803000000001  0.0558780800000000  0.5611774000000000
  0.4843765100000000  0.3892327800000000  0.5645360500000000
  0.4937915900000000  0.7257302400000000  0.5662146300000001
  0.6684603200000000  0.2226146500000000  0.5613825200000000
  0.6546735600000000  0.5597012800000000  0.5615760900000000
  0.6640668800000000  0.8898628000000000  0.5611831900000001
  0.8229016400000000  0.0522072100000000  0.5618851000000000
  0.8318983700000000  0.3900721200000000  0.5622452000000000
  0.8232543600000000  0.7254452600000000  0.5592443700000000
  0.9928470200000000  0.5568538600000000  0.6837998300000000
  0.0013010000000000  0.8906916200000000  0.6862817300000000
  0.1558026200000000  0.0529437000000000  0.6875448500000000
  0.1534835800000000  0.3883053600000000  0.6897393700000000
  0.1544571800000000  0.7287289700000000  0.6879807900000000
  0.3216707400000000  0.5594394300000000  0.6883011700000000
  0.3374181300000000  0.8844693000000000  0.6871192399999999
  0.4843061100000001  0.0539002700000000  0.6904371700000000
  0.4842395400000000  0.3894562400000000  0.6860662999999999
  0.6638719700000000  0.5599707500000000  0.6861622100000000
  0.6775029800000000  0.8897116300000000  0.6876025400000000
  0.8217057700000000  0.0559658600000000  0.6887355900000000
  0.8257948800000000  0.3945284300000000  0.6864777600000000
  0.8340314599999999  0.7222795400000001  0.6865960600000000
  0.9915821500000001  0.2197185300000000  0.6898037500000000
  0.3371922600000000  0.2202213300000000  0.6878008000000000
  0.4969208400000000  0.7223511600000000  0.6912238600000000
  0.6656561600000001  0.2214523000000000  0.6867564300000000
  0.4956313000000001  0.5026869100000000  0.6270786800000000
  0.1668293300000000  0.1668455600000000  0.6297251699999999
  0.9877422000000000  0.9993702700000000  0.6243878200000000
  0.8427798000000000  0.8317391100000000  0.6210840200000000
  0.6655203100000000  0.6728477300000000  0.6255971200000000
  0.3157716500000000  0.3302656700000000  0.6253975800000000
  0.8292324500000000  0.1672112400000000  0.6243221600000000
  0.1641903400000000  0.5031358000000000  0.6250197100000000
  0.8317112100000000  0.5055025300000000  0.6202526100000000
  0.9945172800000001  0.3320154400000000  0.6243691200000000
  0.6588633200000000  0.3351028100000000  0.6233801100000000
  0.5062183700000000  0.1626141900000000  0.6247906400000000
  0.1672774300000000  0.8387427800000000  0.6247360100000000
  0.6529121100000000  0.0024137700000000  0.6249576300000000
  0.3219474600000000  0.6697882900000000  0.6281513600000000
  0.9958422400000000  0.6701897900000000  0.6207776000000000
  0.5040865200000000  0.8364486100000000  0.6284520800000000
  0.3247536200000000  0.9977296000000001  0.6261259900000000
