Mo  S  W 
 1.0000000000000000
     9.5549999999999997    0.0000000000000000    0.0000000000000000
     0.0000000000000000   16.5497450000000015    0.0000000000000000
     0.0000000000000000    0.0000000000000000   25.0000000000000000
  Mo   S   W
  18  72  18
Direct
  0.1734006300000000  0.0476359100000000  0.3730022100000000
  0.6768215000000000  0.5524451900000000  0.3765036100000000
  0.8434651800000001  0.3821112000000000  0.3753458100000000
  0.0039524100000000  0.2153176200000000  0.3776472000000000
  0.8419366100000000  0.0542708400000000  0.3764352600000000
  0.4955217000000000  0.3883529000000000  0.3720316500000000
  0.0054898200000000  0.8902302500000000  0.3736530200000000
  0.6748347400000000  0.8868063100000000  0.3724402800000000
  0.8373861900000001  0.7240294900000001  0.3725044300000000
  0.3420041100000000  0.5601226500000001  0.3706597800000000
  0.3330401200000000  0.8844586000000000  0.3711937500000000
  0.1655197200000000  0.3883039700000000  0.3734902800000001
  0.0087159600000000  0.5574865900000000  0.3707284600000000
  0.1714402500000000  0.7226323000000000  0.3717776100000000
  0.6725438900000000  0.2157492400000000  0.3734825500000000
  0.5004487500000000  0.0542524900000000  0.3720980400000001
  0.3422681800000000  0.2181981100000000  0.3768324000000000
  0.5111326500000000  0.7251885800000000  0.3702880000000001
  0.0061145200000000  0.3291914600000000  0.3110935500000000
  0.9974133300000000  0.6688914200000000  0.3112062500000000
  0.0020083900000000  0.9975413499999999  0.3112110400000000
  0.1732035200000000  0.1642636600000000  0.3192149700000000
  0.1709902900000000  0.4987062400000000  0.3088457200000000
  0.1652233800000000  0.8357504500000000  0.3111567100000000
  0.3312541200000000  0.3286184400000000  0.3084958900000000
  0.3393821000000000  0.6716184800000000  0.3099932400000000
  0.3330463900000000  0.9963892700000001  0.3078163000000000
  0.4982925600000000  0.1623968300000000  0.3086974600000000
  0.5107463500000000  0.5029512200000000  0.3110502000000000
  0.4996702199999999  0.8367148900000000  0.3060773500000000
  0.6670896400000000  0.3310683700000000  0.3122990100000000
  0.6764694100000000  0.6611075500000000  0.3129207100000000
  0.6788202400000000  0.9997367100000000  0.3114146800000000
  0.8428052600000000  0.1594317200000000  0.3158067900000000
  0.8412212100000001  0.4968575700000000  0.3128685500000000
  0.8497547800000000  0.8371860900000000  0.3111789600000000
  0.0105378000000000  0.6728373700000000  0.4332573900000000
  0.1718773900000000  0.1623873100000000  0.4353336400000000
  0.3317340000000000  0.3328962000000000  0.4350783800000000
  0.3492294100000000  0.6712050100000000  0.4335652600000000
  0.5061482500000000  0.1653816000000000  0.4387623800000000
  0.6676516500000000  0.3246543100000000  0.4361092700000000
  0.6731743300000000  0.6751690000000000  0.4359985100000000
  0.8256318000000000  0.1613806500000000  0.4411822200000000
  0.8372813700000001  0.8360260300000000  0.4394622900000000
  0.0112792200000000  0.3267557400000000  0.4400845100000000
  0.0075642400000000  0.9928802299999999  0.4388665100000000
  0.1703193600000000  0.5042124200000000  0.4353606900000000
  0.1781127400000000  0.8313462800000000  0.4371418699999999
  0.3463156200000000  0.9937280000000001  0.4379992600000000
  0.5022940200000000  0.5046579900000000  0.4327238200000000
  0.5107969000000000  0.8352613700000000  0.4310257000000000
  0.6612277700000000  0.0037848400000000  0.4347748000000000
  0.8567507300000001  0.5016288300000000  0.4362505000000000
  0.9973692600000001  0.2258890100000000  0.5662010400000000
  0.9950299600000000  0.5609930700000000  0.5639247600000000
  0.9892565700000001  0.8908560700000000  0.5673387000000000
  0.1687055800000000  0.0566451700000000  0.5616952700000000
  0.1740693400000000  0.3895425000000000  0.5663390500000000
  0.1716988000000000  0.7230802200000001  0.5655733400000000
  0.3237471300000000  0.2269409000000000  0.5637864700000000
  0.3267444600000000  0.5624263500000000  0.5637681500000000
  0.3218545900000000  0.8884958400000000  0.5657952900000000
  0.5007663900000000  0.0571640200000000  0.5608881400000000
  0.4989716800000000  0.3860898000000000  0.5640361300000000
  0.5027690700000000  0.7247208600000000  0.5640230500000000
  0.6601087400000000  0.2203602200000000  0.5646853800000000
  0.6557105000000000  0.5553521100000000  0.5592009000000000
  0.6588076400000000  0.8832374900000000  0.5610903699999999
  0.8379129199999998  0.0543570400000000  0.5615072300000000
  0.8320694900000000  0.3897602000000000  0.5651424900000001
  0.8306468299999999  0.7261526100000000  0.5661954100000000
  0.9908452800000001  0.5540298800000000  0.6877077000000000
  0.9903796399999999  0.8943220500000000  0.6868549600000000
  0.1662150800000000  0.0555589300000000  0.6851351400000000
  0.1685103700000000  0.3899902800000000  0.6913872800000000
  0.1735626700000000  0.7280292900000001  0.6919307599999999
  0.3229950100000000  0.5615558800000000  0.6856862900000000
  0.3339776600000000  0.8914495000000000  0.6863458000000000
  0.5025738700000000  0.0557871800000000  0.6871037300000000
  0.5021613700000001  0.3969935500000000  0.6877840700000000
  0.6511768300000000  0.5584053100000000  0.6863203300000000
  0.6523315500000000  0.8888994700000000  0.6896769300000000
  0.8320168900000000  0.0550748600000000  0.6873999200000001
  0.8243995400000000  0.3923408900000000  0.6907308900000000
  0.8255310800000000  0.7200541100000000  0.6889812300000000
  0.9918964500000002  0.2214609300000000  0.6893429500000000
  0.3252661100000000  0.2208684300000000  0.6891402700000000
  0.5051467400000000  0.7201936400000000  0.6899892200000000
  0.6569179500000000  0.2169569500000000  0.6866182300000000
  0.4925339600000000  0.5034112100000000  0.6230464500000000
  0.1582343300000000  0.1650888800000000  0.6259328500000000
  0.9976874100000002  0.0022262600000000  0.6241574200000000
  0.8231801000000000  0.8347007300000000  0.6281607600000000
  0.6628763400000000  0.6670708300000000  0.6238060900000000
  0.3399947400000000  0.3352710400000000  0.6285619099999999
  0.8275691700000000  0.1678189900000000  0.6249133900000000
  0.1605749200000000  0.5048707099999999  0.6254791800000000
  0.8212087900000000  0.5019077900000000  0.6242624700000000
  0.9960019899999999  0.3386209700000000  0.6279647400000000
  0.6632095300000000  0.3315062100000000  0.6251347400000000
  0.4893389899999999  0.1678369100000000  0.6249271600000000
  0.1622384000000000  0.8393637700000000  0.6302382900000000
  0.6744984900000000  0.9947413600000000  0.6225156500000000
  0.3392930900000000  0.6723672200000000  0.6261165000000000
  0.0028078500000000  0.6707064900000000  0.6275033200000000
  0.4906769100000000  0.8334755800000000  0.6269349300000000
  0.3348431400000000  0.0026148100000000  0.6238681000000000
