Mo  S  W 
 1.0000000000000000
     9.5549999999999997    0.0000000000000000    0.0000000000000000
     0.0000000000000000   16.5497450000000015    0.0000000000000000
     0.0000000000000000    0.0000000000000000   25.0000000000000000
  Mo   S   W
  18  72  18
Direct
  0.1689043600000000  0.0560536900000000  0.3708570200000000
  0.6689479300000000  0.5528499600000000  0.3746363700000000
  0.8217886400000000  0.3865801500000000  0.3748301700000000
  0.0018563400000000  0.2166879400000000  0.3716278300000000
  0.8278194100000000  0.0562695000000000  0.3726482300000000
  0.4929275000000000  0.3945943900000000  0.3722848800000000
  0.9921637300000000  0.8898288900000000  0.3748353700000000
  0.6637895300000000  0.8966918800000000  0.3747671800000000
  0.8260692200000000  0.7282568000000000  0.3780723500000000
  0.3305768900000000  0.5618127800000000  0.3742098500000000
  0.3318419000000000  0.8906776600000000  0.3732258600000000
  0.1613560600000000  0.3943787000000000  0.3685487000000000
  0.9941835300000000  0.5603085799999999  0.3756121400000000
  0.1660734200000000  0.7275728600000000  0.3775226100000000
  0.6615244000000000  0.2228793900000000  0.3717060600000000
  0.4980746700000000  0.0528971900000000  0.3670842500000000
  0.3222752300000000  0.2184518100000000  0.3711729000000000
  0.5059807600000000  0.7249703000000000  0.3737325900000000
  0.9988336400000000  0.3363074900000000  0.3083466700000000
  0.9819804000000001  0.6741722200000000  0.3156294900000000
  0.0004453100000000  0.9954009200000000  0.3112859300000000
  0.1679606700000000  0.1653260900000000  0.3081219300000000
  0.1592197600000000  0.5107454600000000  0.3104728400000000
  0.1583174500000000  0.8351219100000000  0.3133885200000000
  0.3338647500000000  0.3333985500000000  0.3071755800000000
  0.3348047800000000  0.6770737600000000  0.3139088300000000
  0.3265982600000000  0.9975657399999999  0.3059094400000000
  0.5038862500000000  0.1631384100000000  0.3049682700000000
  0.4935412400000000  0.5065451700000000  0.3108002400000000
  0.4976206300000000  0.8365050200000000  0.3122106400000000
  0.6579449700000000  0.3388354500000000  0.3046707100000000
  0.6690810100000000  0.6697038800000000  0.3130510100000000
  0.6751174200000000  0.0005634400000000  0.3049998500000000
  0.8317746200000000  0.1681352300000000  0.3135990500000000
  0.8365942100000000  0.4988354100000000  0.3128370600000000
  0.8246200100000000  0.8342230400000000  0.3135871700000000
  0.9974742200000000  0.6722247800000000  0.4418911200000000
  0.1585216200000000  0.1638728200000000  0.4355046500000000
  0.3270965000000000  0.3309213100000000  0.4309571900000000
  0.3407012100000000  0.6743770500000000  0.4367367900000000
  0.4963113400000000  0.1628823700000000  0.4300187300000000
  0.6521226000000000  0.3339266500000000  0.4347609200000000
  0.6568350100000000  0.6717508100000000  0.4352537000000000
  0.8223773800000000  0.1690229100000000  0.4334671100000000
  0.8156753300000000  0.8404899200000000  0.4391366200000000
  0.9996773799999999  0.3326019700000000  0.4337453700000000
  0.0016770300000000  0.0022864300000000  0.4333703700000000
  0.1661647000000000  0.5007872600000000  0.4378535100000000
  0.1745496300000000  0.8381135600000000  0.4361644200000000
  0.3336740300000000  0.0031314900000000  0.4339575000000000
  0.4946434000000000  0.5066308800000000  0.4348712400000000
  0.5015944500000000  0.8389787300000000  0.4348613100000000
  0.6593654700000000  0.0110301200000000  0.4387055000000000
  0.8307963700000000  0.5017286000000000  0.4354182100000001
  0.9977561699999999  0.2184669500000000  0.5620918700000000
  0.0077689800000000  0.5557496800000000  0.5606235000000001
  0.0098472400000000  0.8828297600000000  0.5646203200000000
  0.1738634800000000  0.0515174000000000  0.5637604300000000
  0.1636833300000000  0.3845187400000000  0.5613282300000000
  0.1594164700000000  0.7233363900000001  0.5663277500000000
  0.3425347900000000  0.2223842200000000  0.5663332500000000
  0.3478050000000000  0.5569615200000000  0.5624474200000000
  0.3393561400000000  0.8892803200000000  0.5604405000000000
  0.5052892900000000  0.0573161000000000  0.5636807200000000
  0.5066191900000000  0.3865109100000000  0.5685138300000000
  0.4942115100000001  0.7264909800000000  0.5626990200000000
  0.6670885100000000  0.2188232000000000  0.5638112600000000
  0.6757966300000000  0.5565074100000000  0.5645194400000000
  0.6715207900000000  0.8929321400000000  0.5653998200000000
  0.8244770000000000  0.0478683500000000  0.5622177900000001
  0.8260836600000000  0.3898636000000000  0.5652251100000000
  0.8365522500000000  0.7225490300000000  0.5633204000000001
  0.0120495300000000  0.5544262900000000  0.6894126900000001
  0.0088184600000000  0.8899864300000000  0.6879874300000001
  0.1741212700000000  0.0524901900000000  0.6849736100000000
  0.1551909500000000  0.3912471000000000  0.6899021400000001
  0.1598969500000000  0.7231183600000000  0.6875444800000000
  0.3378569200000000  0.5589753700000000  0.6885015100000001
  0.3377122500000000  0.8839455899999999  0.6882118400000000
  0.5000517100000000  0.0524113200000000  0.6950376800000000
  0.4909926999999999  0.3890938100000000  0.6884136000000000
  0.6711771600000001  0.5569948400000000  0.6881927300000001
  0.6751943900000000  0.8860682900000000  0.6885122100000000
  0.8373708000000000  0.0523531500000000  0.6887460600000000
  0.8295196500000001  0.3901133600000000  0.6883169099999999
  0.8304781400000000  0.7208112300000000  0.6891786600000001
  0.0007725000000000  0.2188299700000000  0.6859331400000001
  0.3287463100000000  0.2196758200000000  0.6913378500000000
  0.5036012900000000  0.7251989500000000  0.6902660300000000
  0.6726730200000000  0.2163474700000000  0.6894943800000000
  0.5093087100000000  0.5025551400000000  0.6270775700000000
  0.1737980700000000  0.1624132800000000  0.6232310500000000
  0.9979694600000000  0.9943626300000000  0.6235039200000000
  0.8447196200000000  0.8321879700000000  0.6268323300000000
  0.6623478500000000  0.6689637400000000  0.6236866500000000
  0.3255941700000000  0.3330860900000000  0.6283407700000000
  0.8354999200000000  0.1643882400000000  0.6247117900000000
  0.1807317400000000  0.5009133000000000  0.6241209900000000
  0.8405411899999999  0.5038367200000000  0.6282483400000000
  0.9960667200000000  0.3326852000000000  0.6232842300000000
  0.6617717400000001  0.3281858900000000  0.6286288300000000
  0.5065125600000000  0.1647007300000000  0.6284679399999999
  0.1742256700000000  0.8348597600000000  0.6252077300000000
  0.6621321999999999  0.9989204600000000  0.6271489000000000
  0.3312266200000000  0.6689118400000000  0.6257183700000000
  0.9920650200000000  0.6679435700000000  0.6262848900000000
  0.5039904900000000  0.8372763500000000  0.6271631100000000
  0.3422531800000000  0.9963005800000000  0.6276026600000000
