Mo  S  W 
 1.0000000000000000
     9.5549999999999997    0.0000000000000000    0.0000000000000000
     0.0000000000000000   16.5497450000000015    0.0000000000000000
     0.0000000000000000    0.0000000000000000   25.0000000000000000
  Mo   S   W
  18  72  18
Direct
  0.1638906100000000  0.0463599200000000  0.3759651500000000
  0.6694673100000000  0.5563607800000000  0.3790011500000000
  0.8294468500000000  0.3864567600000000  0.3755226400000000
  0.9966310300000000  0.2144367100000000  0.3736132600000000
  0.8287115400000000  0.0539481100000000  0.3720822300000000
  0.4907056300000000  0.3846638800000000  0.3809410700000000
  0.9975985599999999  0.8860635800000000  0.3786761300000000
  0.6619360399999999  0.8906299900000000  0.3741215500000001
  0.8346149000000000  0.7236531300000000  0.3792057900000000
  0.3345058900000000  0.5615533400000000  0.3798764700000000
  0.3330462600000000  0.8858215400000000  0.3786915000000001
  0.1648628400000000  0.3899163900000000  0.3777127900000000
  0.9922645400000000  0.5539819800000000  0.3773019800000000
  0.1702151600000000  0.7245084400000000  0.3794133000000000
  0.6556133300000000  0.2159179900000000  0.3766298000000001
  0.4987413999999999  0.0513861400000000  0.3760870600000000
  0.3235093200000000  0.2179180800000000  0.3754272500000000
  0.5013098100000000  0.7232427000000000  0.3829445100000000
  0.0015030200000000  0.3282656900000000  0.3146006400000000
  0.0031901800000000  0.6680227399999999  0.3162867000000000
  0.9910283499999999  0.9912250299999998  0.3119155100000000
  0.1674010400000000  0.1542673600000000  0.3152831900000000
  0.1652974700000000  0.4983572100000001  0.3168466100000000
  0.1589426500000000  0.8340863200000000  0.3134113000000000
  0.3221896200000000  0.3330614100000000  0.3130532600000000
  0.3443263400000000  0.6686420100000000  0.3179141700000000
  0.3408520000000000  0.9932638699999999  0.3128968200000000
  0.4811825900000000  0.1669619100000000  0.3132019500000000
  0.5028957600000000  0.4984995300000000  0.3221977600000001
  0.5000959600000000  0.8255086800000000  0.3176015300000000
  0.6525139800000000  0.3232389500000000  0.3125761700000000
  0.6733274900000000  0.6640574200000000  0.3171576700000000
  0.6581431500000000  0.9996999800000000  0.3074205400000000
  0.8157553000000000  0.1637531700000000  0.3128283000000000
  0.8269642200000000  0.4972851300000001  0.3131927000000000
  0.8333709600000000  0.8333847500000000  0.3130983900000000
  0.9996473500000000  0.6655460100000000  0.4418353300000000
  0.1663914800000000  0.1640698200000000  0.4360630100000000
  0.3146802100000000  0.3322836500000000  0.4381861800000000
  0.3293634300000000  0.6731590400000000  0.4425547700000000
  0.4927344000000000  0.1618641400000000  0.4406743800000000
  0.6585944900000000  0.3185206600000000  0.4395993000000000
  0.6694338600000000  0.6632259900000000  0.4429103999999999
  0.8337212200000000  0.1624126000000000  0.4362659700000001
  0.8206833200000000  0.8340507500000000  0.4405188500000000
  0.9991969100000000  0.3246524300000000  0.4387991700000000
  0.9847201900000000  0.0047228300000000  0.4396995000000000
  0.1634426800000000  0.5053137400000000  0.4420077000000000
  0.1579535100000000  0.8359115499999999  0.4400463400000000
  0.3478567600000000  0.9947347400000000  0.4388738300000000
  0.4928897800000000  0.5013963900000000  0.4429033400000000
  0.4999956099999999  0.8333960800000000  0.4412224600000000
  0.6672522000000000  0.9997443799999999  0.4372733799999999
  0.8339726000000000  0.4927370600000000  0.4369192400000000
  0.0023943200000000  0.2216420800000000  0.5660906900000000
  0.9938370500000000  0.5512760900000000  0.5608943500000000
  0.0010429800000000  0.8951717900000000  0.5610032000000000
  0.1646779900000000  0.0576599600000000  0.5631396400000001
  0.1677557700000000  0.3889882100000000  0.5567829300000000
  0.1604249000000000  0.7196374100000000  0.5603545400000000
  0.3321675200000000  0.2252023800000000  0.5606340600000000
  0.3322729500000000  0.5533817100000000  0.5611576400000000
  0.3451771900000000  0.8932716600000000  0.5615206100000000
  0.4965164600000000  0.0614655300000000  0.5607671100000000
  0.4995352100000000  0.3926321500000000  0.5591715700000000
  0.5006735600000000  0.7236254000000000  0.5593827700000000
  0.6725273300000000  0.2260415500000000  0.5615478500000000
  0.6702024100000000  0.5575807400000000  0.5635861300000000
  0.6769605100000000  0.8908877600000000  0.5604684700000000
  0.8363796000000000  0.0595859500000000  0.5642674800000000
  0.8370214300000000  0.3922370800000000  0.5617945500000000
  0.8358553600000000  0.7244290500000000  0.5603546200000000
  0.0062448700000000  0.5541787400000000  0.6877194100000000
  0.0025300800000000  0.8864509400000000  0.6832674600000000
  0.1714329900000000  0.0588436000000000  0.6874556800000000
  0.1745016900000000  0.3849782700000000  0.6871628099999999
  0.1766932500000000  0.7226034099999999  0.6824829199999999
  0.3362372000000000  0.5534283900000000  0.6827932300000000
  0.3326649900000000  0.8874689200000000  0.6818894800000002
  0.4973966900000000  0.0643435900000000  0.6865943500000000
  0.5000288600000000  0.3869700200000000  0.6844483300000000
  0.6637277400000000  0.5601053300000000  0.6865451700000000
  0.6617958300000000  0.8941565200000000  0.6829060200000001
  0.8326939500000000  0.0569880800000000  0.6898372100000000
  0.8372847300000000  0.3883091500000000  0.6887900200000000
  0.8373479599999999  0.7226482200000000  0.6830094400000000
  0.0107602300000000  0.2278531500000000  0.6885468600000000
  0.3416338700000000  0.2286882700000000  0.6841754400000000
  0.4986487099999999  0.7216024900000000  0.6838891800000000
  0.6665205400000001  0.2262911100000000  0.6849970800000000
  0.5026128600000001  0.4999105099999999  0.6226806600000000
  0.1757004900000000  0.1685549800000000  0.6253625700000000
  0.9985562100000001  0.0040147600000000  0.6277099700000000
  0.8369628000000000  0.8361572700000000  0.6237687400000000
  0.6679907700000000  0.6709498699999999  0.6231779900000000
  0.3339640500000000  0.3374664300000000  0.6201319300000000
  0.8350369000000000  0.1706256400000000  0.6276589000000000
  0.1682689600000000  0.4975179800000000  0.6215471200000000
  0.8308852500000000  0.4994327399999999  0.6272013300000000
  0.0017967600000000  0.3374023100000000  0.6243223100000000
  0.6650660100000000  0.3372683500000000  0.6219032900000000
  0.5009523200000000  0.1738865300000000  0.6219351400000001
  0.1743702700000000  0.8352098999999999  0.6201588900000000
  0.6647387200000000  0.0081284000000000  0.6256164800000000
  0.3334878900000000  0.6632526100000000  0.6217739600000000
  0.0051661300000000  0.6640724200000000  0.6233358000000000
  0.5075268300000000  0.8346271600000000  0.6200701400000000
  0.3341164800000000  0.0040194300000000  0.6229042299999999
