Mo  S  W 
 1.0000000000000000
     9.5549999999999997    0.0000000000000000    0.0000000000000000
     0.0000000000000000   16.5497450000000015    0.0000000000000000
     0.0000000000000000    0.0000000000000000   25.0000000000000000
  Mo   S   W
  18  72  18
Direct
  0.1687074000000000  0.0563331800000000  0.3712237500000001
  0.6687450600000000  0.5525346900000000  0.3744090700000000
  0.8215319800000001  0.3867977500000000  0.3747439800000000
  0.0018152100000000  0.2169773400000000  0.3715541000000001
  0.8278606200000000  0.0558254900000000  0.3726943400000000
  0.4932118800000000  0.3944408000000000  0.3722349599999999
  0.9924571500000001  0.8894612700000000  0.3748434300000000
  0.6630547400000000  0.8966838600000000  0.3746421900000000
  0.8266395100000000  0.7274956500000000  0.3781495800000000
  0.3306651800000000  0.5616858300000001  0.3744441900000000
  0.3317719800000000  0.8906598600000000  0.3733462200000000
  0.1609254000000000  0.3941487700000000  0.3687114900000000
  0.9940757999999998  0.5602465100000000  0.3755634600000001
  0.1665483800000000  0.7276883100000000  0.3771681200000000
  0.6607146800000000  0.2224823000000000  0.3719701100000000
  0.4985118900000000  0.0528475000000000  0.3671758300000000
  0.3217344100000000  0.2186882400000000  0.3712164900000000
  0.5057453000000000  0.7250685600000000  0.3737255700000000
  0.9991403400000001  0.3354221800000000  0.3077909300000000
  0.9839899800000002  0.6741272000000000  0.3145497400000000
  0.9997271900000000  0.9956358100000000  0.3110166700000000
  0.1680605600000000  0.1660713400000000  0.3076748600000000
  0.1601430500000000  0.5105575200000000  0.3105408500000000
  0.1594961700000000  0.8339926400000000  0.3130694500000000
  0.3318477700000000  0.3335194600000000  0.3075867800000000
  0.3346979000000000  0.6770941400000000  0.3141986800000000
  0.3273190100000000  0.9975289400000000  0.3064994500000000
  0.5049489600000000  0.1635176300000000  0.3048890500000000
  0.4935585400000000  0.5069285100000001  0.3102916400000000
  0.4992756300000001  0.8362727000000000  0.3125574400000000
  0.6586987900000000  0.3382643000000000  0.3048204400000000
  0.6693100400000001  0.6702942100000000  0.3129907700000000
  0.6739138600000000  0.0015809000000000  0.3054817600000000
  0.8300302899999999  0.1684517800000000  0.3132338100000000
  0.8370544700000000  0.4995981199999999  0.3128930300000000
  0.8235429600000000  0.8335329299999999  0.3132352800000000
  0.9968796400000000  0.6714009700000000  0.4422917400000000
  0.1588818000000000  0.1646124000000000  0.4354400600000000
  0.3269138100000000  0.3308951900000000  0.4316955600000000
  0.3400022300000000  0.6747922100000000  0.4366618300000000
  0.4951972399999999  0.1631616300000000  0.4296888600000000
  0.6529599200000000  0.3342293100000000  0.4353579000000000
  0.6564771700000001  0.6709668000000000  0.4351246100000000
  0.8220706700000000  0.1697056800000000  0.4336083800000000
  0.8169469800000000  0.8406115900000000  0.4392379600000000
  0.0015347300000000  0.3328209200000000  0.4333934100000000
  0.0006006300000000  0.0029651300000000  0.4333116700000000
  0.1666837000000000  0.5003832200000000  0.4379412600000000
  0.1731668300000000  0.8388931400000000  0.4363495000000001
  0.3333469000000000  0.0032200600000000  0.4337755600000000
  0.4943056900000000  0.5069925600000000  0.4346631600000000
  0.5016061600000000  0.8387032700000000  0.4347986300000000
  0.6608797300000000  0.0111733000000000  0.4391980000000000
  0.8287246400000000  0.5020148900000000  0.4362012500000000
  0.9979903400000000  0.2190406400000000  0.5624806300000000
  0.0076238100000000  0.5561405900000000  0.5607710700000000
  0.0084841700000000  0.8825260000000000  0.5641714700000000
  0.1733603900000000  0.0515916300000000  0.5633514800000000
  0.1645822000000000  0.3845921800000000  0.5610189000000000
  0.1592956200000000  0.7238094600000000  0.5667108000000000
  0.3433462100000000  0.2216621100000000  0.5663961700000000
  0.3479551900000000  0.5568062400000000  0.5622106500000000
  0.3390039500000000  0.8890946100000000  0.5600789500000000
  0.5055222100000000  0.0570132900000000  0.5636207400000000
  0.5050362600000000  0.3862580600000000  0.5685514100000000
  0.4945770500000001  0.7269041200000000  0.5628302600000000
  0.6671652300000001  0.2185065200000000  0.5636859900000000
  0.6757190300000000  0.5555544400000000  0.5647679700000000
  0.6711287900000000  0.8927428200000000  0.5656227900000000
  0.8245993100000000  0.0483221800000000  0.5624252300000000
  0.8265404300000000  0.3898473600000000  0.5650628300000000
  0.8370364100000000  0.7226843400000000  0.5631924600000000
  0.0117740800000000  0.5545590300000000  0.6891801000000000
  0.0094578800000000  0.8899015600000000  0.6880195500000000
  0.1745235900000000  0.0523079300000000  0.6845593800000001
  0.1555112900000000  0.3916000900000000  0.6896146100000000
  0.1598619000000000  0.7232466400000001  0.6869910800000000
  0.3388553500000000  0.5594643300000000  0.6881085900000001
  0.3382870500000000  0.8845114700000000  0.6880646200000000
  0.5005435300000000  0.0519245900000000  0.6941383799999999
  0.4908203000000000  0.3888902900000000  0.6886969800000000
  0.6716317400000000  0.5575833600000000  0.6880526400000000
  0.6763693700000000  0.8857811900000000  0.6887972999999999
  0.8363596700000000  0.0516777200000000  0.6887423900000000
  0.8301992600000000  0.3897230900000000  0.6884138400000001
  0.8313205400000000  0.7202995599999999  0.6892035700000000
  0.0005750400000000  0.2189662500000000  0.6858877900000000
  0.3286142400000000  0.2194162600000000  0.6908251599999999
  0.5026098600000000  0.7256094900000000  0.6895073000000000
  0.6723825400000000  0.2169788400000000  0.6893774300000000
  0.5095036100000000  0.5024406700000000  0.6268445200000000
  0.1741160900000000  0.1626234300000000  0.6233717800000000
  0.9979541100000000  0.9944209899999998  0.6234236700000000
  0.8447776600000000  0.8319575299999999  0.6271384600000000
  0.6622678800000000  0.6690455300000000  0.6237861099999999
  0.3251190800000000  0.3331696200000000  0.6282484900000000
  0.8352529500000000  0.1640546300000000  0.6248121400000000
  0.1808891100000000  0.5010205000000000  0.6240240100000000
  0.8405692299999998  0.5039387200000000  0.6281763500000000
  0.9961311100000000  0.3326793500000000  0.6235909100000000
  0.6614302600000000  0.3282017200000000  0.6287958800000000
  0.5068827400000000  0.1643111400000000  0.6282983900000000
  0.1741621600000000  0.8354291800000000  0.6252717300000000
  0.6617118900000000  0.9989508500000001  0.6270763300000000
  0.3308453900000000  0.6690728900000000  0.6258293900000000
  0.9922485600000001  0.6681132600000000  0.6263128000000000
  0.5046277500000000  0.8371480800000000  0.6273878700000000
  0.3424500700000000  0.9962542199999999  0.6272979700000000
